! Touchstone file from project FYP_Sim_Actual_Separated_Ports
! Exported from HFSS 13.0.2
# GHZ S MA R 50.000000
! Terminal data exported
! Port[1] = PD1_Void_Port_T1
! Port[2] = Radiating_Plate_T1
0                0.999999952748112 0                1.03211828081335E-010 180              1.03210702771912E-010 180              0.999179522716076 0                
0.01             0.999999999999556 -0.0132311439827858 8.7990697889084E-011 143.845591045054 8.79937111610091E-011 143.847025043739 0.998404306494535 -6.96730754054227 
0.02             1.0000001558263  -0.02646623626866 1.19914381902228E-010 71.7270025514788 1.19919614959648E-010 71.7369065955869 0.996636309917634 -13.8590796421831 
0.03             1.00000052896766 -0.0397123956382104 3.42056814664744E-010 33.400631715336  3.42055405915352E-010 33.4117620845622 0.995007144255419 -20.7053860528662 
0.04             1.00000199918291 -0.0529881067048934 8.6749259331298E-010 14.9113464032347 8.67504393328166E-010 14.9229915804448 0.993507305080285 -27.5310942110842 
0.05             1.00000207768773 -0.0658545473181049 2.06590888771586E-009 -4.94835227052223 2.06602277770075E-009 -4.93646924005738 0.992035884110934 -34.3420007835084 
0.06             0.999999835789012 -0.0792579721652936 4.46806337039858E-009 -37.708942276828 4.46850340559587E-009 -37.6986087420111 0.990563296075785 -41.1386754611926 
0.07             0.999999929198558 -0.092537918392887 6.74254582603298E-009 -78.9224955485255 6.74320030027039E-009 -78.913875573584 0.9891043206643  -47.9218573568661 
0.08             1.0000000164709  -0.105797164667578 8.324232350115E-009 -108.552923472425 8.32513165569598E-009 -108.54437545932 0.98768769345635 -54.6939058347973 
0.09             1.00000004225425 -0.119052412771003 1.19042684959216E-008 -135.180200159705 1.19059196349447E-008 -135.174283962832 0.986336152275648 -61.4591073500781 
0.1              0.999999999930531 -0.132307651293223 1.78318075607084E-008 169.19550046765  1.78318106776373E-008 169.195500889772 0.985052507429817 -68.2236179969957 
0.11             1.00000000055938 -0.145533413338445 3.75165363223687E-008 -50.7198386133752 3.69659552493072E-008 -109.141523129115 0.983677362856003 -74.9941387792577 
0.12             1.00000000094324 -0.158759820975219 8.41770451903637E-008 -41.2893955961163 6.92235551863518E-008 -87.2525642747663 0.982329546784   -81.7628842868506 
0.13             1.00000000114303 -0.171986789913165 1.26533421644133E-007 -36.5370908088937 1.01028132446343E-007 -74.0304695297429 0.981016450675644 -88.5346863761789 
0.14             1.00000000119913 -0.185214265905888 1.64523725155672E-007 -32.1161231249698 1.31346705791149E-007 -62.7658889895137 0.979734429064026 -95.3152173074707 
0.15             1.00000000113988 -0.198442214835395 1.98337047766452E-007 -27.2665176928822 1.60149020754238E-007 -51.9032997015228 0.978467504983328 -102.11092903481 
0.16             1.00000000098663 -0.21167061646304 2.28258599017509E-007 -21.652387860707 1.8777721705933E-007 -40.8135131858816 0.977186326086473 -108.928985022722 
0.17             1.00000000075703 -0.224899460303678 2.54774043945108E-007 -15.0115316398784 2.14951208741802E-007 -29.1371251505552 0.975847379087619 -115.77718891301 
0.18             1.00000000046713 -0.238128742749157 2.78771922245165E-007 -7.07915522042368 2.42898118824715E-007 -16.6359941575431 0.974392467175409 -122.663914765797 
0.19             1.00000000013303 -0.251358464912  3.01863703827246E-007 2.41768876072107 2.73531148441819E-007 -3.17258014951483 0.972748448746397 -129.598044159755 
0.2              0.999999999771998 -0.264588630838664 3.26832737761042E-007 13.7120645339638 3.09617883663865E-007 11.2654765320505 0.97082722171625 -136.588916087706 
0.21             0.9999999994034  -0.277819245827565 3.58130045363667E-007 26.8849408319143 3.54845880304785E-007 26.5380097474165 0.968525911022161 -143.646296114376 
0.22             0.999999999049248 -0.291050314613907 4.02137617330251E-007 41.7169613603281 4.13689344974878E-007 42.3650937378147 0.965727173942226 -150.780371261718 
0.23             0.999999998734358 -0.304281839164214 4.66777159968323E-007 57.6325286271647 4.91053540307755E-007 58.4030268705045 0.962299477964206 -158.001775879621 
0.24             0.999999998485806 -0.317513815758323 5.60335429433113E-007 73.8833672678175 5.91780993912849E-007 74.3535828890037 0.958097135479341 -165.321650373607 
0.25             0.999999998331209 -0.330746230914698 6.89999473557307E-007 89.8852365610024 7.20118656569134E-007 90.041115203808  0.95295981700938 -172.751727872905 
0.26             0.999999998294955 -0.343979055513173 8.60574501797112E-007 105.413085162083 8.79144342114618E-007 105.419854303377 0.94671124662239 179.695567509434 
0.27             0.999999998390941 -0.35721223614891 1.07311587693871E-006 120.536511821892 1.07009157686846E-006 120.527461991385 0.939156868986155 172.007043949673 
0.28             0.999999998609322 -0.37044568225078 1.32310265049384E-006 135.431200785409 1.2916317113213E-006 135.423224753842 0.930080546825453 164.168741096704 
0.29             0.999999998893155 -0.38367924672477 1.59886888776205E-006 150.213001894454 1.53942362375805E-006 150.139234831527 0.919240881842515 156.166081297777 
0.3              0.999999999098163 -0.396912696711454 1.88228824383587E-006 164.85376185584  1.80640892555062E-006 164.657132262394 0.906368587788304 147.984262526327 
0.31             0.999999998924909 -0.410145669330246 2.15327816232063E-006 179.191322175629 2.08414525279457E-006 178.912350928939 0.891167390043792 139.608973819541 
0.32             0.999999997807355 -0.423377604944369 2.39659804354626E-006 -166.985201386275 2.36488542659082E-006 -167.180578867835 0.873321860178766 131.027465679761 
0.33             0.999999994737076 -0.436607647807967 2.60662820004157E-006 -153.831114051162 2.64354782126268E-006 -153.69505396915 0.852515807707314 122.229907939281 
0.34             0.999999988005691 -0.449834502467786 2.78743133016052E-006 -141.383363675102 2.9187487655042E-006 -140.666200111778 0.82846356551738 113.210822812451 
0.35             0.999999974883364 -0.463056238951411 2.94957505050321E-006 -129.557519373611 3.19268338220946E-006 -128.079399164081 0.800953190003767 103.970230865468 
0.36             0.999999951379304 -0.476270063944409 3.10685804326885E-006 -118.181144877572 3.47025320740932E-006 -115.872524397702 0.769895639847232 94.514065060823  
0.37             0.999999912572484 -0.489472148857517 3.27470310936076E-006 -107.033412691974 3.75799239767101E-006 -103.945708946786 0.735369185043915 84.8534702494169 
0.38             0.999999854668941 -0.502657778139503 3.47030624897158E-006 -95.8753511834255 4.06311514802638E-006 -92.1725354185092 0.697646387361532 75.0028405403124 
0.39             0.999999780530271 -0.515822369325018 3.71400242725288E-006 -84.4681539318061 4.39269518603186E-006 -80.409296018813 0.657194084966671 64.9767887942305 
0.4              0.999999708637282 -0.528964076303169 4.03133238862075E-006 -72.5811185192719 4.7527654605957E-006 -68.5018562209732 0.614644462041842 54.7865446857486 
0.41             0.999999677288157 -0.542087828037818 4.45528546140472E-006 -59.9886168386701 5.14700586205563E-006 -56.2917502181785 0.57074414952807 44.4363978673068 
0.42             0.999999726767898 -0.555207873950069 5.02755712916E-006 -46.4518813832388 5.57466252490577E-006 -43.62465370271  0.526294142864963 33.9206992533031 
0.43             0.999999860738237 -0.568343886734734 5.79536712614412E-006 -31.6836235405805 6.02751917349208E-006 -30.3655406838742 0.482093816174155 23.2216950347518 
0.44             1.00000003196224 -0.581510958736582 6.79435688392017E-006 -15.3160980645396 6.48640082374977E-006 -16.4248453696607 0.438898276893181 12.3082546039637 
0.45             1.00000017934426 -0.594712540123243 7.99832739996992E-006 3.0399222713909  6.91911392647122E-006 -1.7962328901978 0.39739251667571 1.13550817980071 
0.46             1.00000026969538 -0.607942350039276 9.22799693801678E-006 23.4602273780996 7.28337524569184E-006 13.4041193391054 0.358180872711404 -10.3543884637046 
0.47             1.00000030268801 -0.621190744697616 1.01221827385796E-005 45.0600810980525 7.53765646272276E-006 28.92192241246   0.321787341702506 -22.2296792755161 
0.48             1.0000002937562  -0.634449293838889 1.03801664692805E-005 65.8247328794367 7.65716015540204E-006 44.4007322261497 0.288660990847205 -34.5632630778103 
0.49             1.00000025969161 -0.647712218048918 1.00610513887203E-005 83.7758544113995 7.64485001564169E-006 59.4687728331977 0.259180200162831 -47.4217545427027 
0.5              1.00000021304363 -0.660976094917641 9.45189368538291E-006 98.1361341485461 7.52892460590201E-006 73.8334392017638 0.233649215528535 -60.8473314664082 
0.51             1.0000001617245  -0.674239119597483 8.7813497948505E-006 109.144643826607 7.34951747092375E-006 87.3332597551021 0.212281129723352 -74.8323537895215 
0.52             1.00000011025046 -0.687500463641632 8.14947063886454E-006 117.375277302767 7.14497793833371E-006 99.9347948876024 0.195165123923528 -89.2922091189354 
0.53             1.00000006102957 -0.70075984220769 7.57729807210339E-006 123.357021635414 6.94454270337721E-006 111.698156788591 0.182224949726396 -104.049753308071 
0.54             1.00000001528788 -0.714017253007233 7.05275248042483E-006 127.472705562696 6.76729389447124E-006 122.739580289253 0.173188135308582 -118.848023609182 
0.55             0.999999973650675 -0.727272828485221 6.55268053275758E-006 129.960719225185 6.62431929436563E-006 133.205715412092 0.167590670064378 -133.396817153926 
0.56             0.999999936485288 -0.740526755823666 6.05100931168107E-006 130.933097871524 6.52155841503371E-006 143.26213900058  0.164828418194477 -147.435821565581 
0.57             0.999999904097937 -0.753779235640951 5.52126438073993E-006 130.38011204149  6.46218652289957E-006 153.093961027656 0.164239888774231 -160.783613618826 
0.58             0.999999876846791 -0.76703046218029 4.9376327722761E-006 128.144058387079 6.44824904874561E-006 162.916869468153 0.165188377986141 -173.353314425717 
0.59             0.999999855208561 -0.780280615252071 4.27704090047175E-006 123.825698795597 6.48151053846379E-006 172.999696453472 0.167118165958241 174.861208791328 
0.6              0.999999839819593 -0.793529858573047 3.52538732019614E-006 116.50502115588  6.56324551886272E-006 -176.296334964299 0.1695783940819  163.812173574856 
0.61             0.999999831502273 -0.806778341630116 2.69688636226242E-006 103.847536687379 6.69175961940716E-006 -164.450936696698 0.172222335866592 153.423712301505 
0.62             0.999999831281198 -0.820026203581188 1.90581598043213E-006 79.2320089834477 6.85375233656035E-006 -150.674709599712 0.174793527511399 143.610556393162 
0.63             0.999999840389208 -0.833273578460785 1.60040962129107E-006 32.5033961546661 6.99896170471215E-006 -133.753460538618 0.177107687475801 134.289228787375 
0.64             0.999999860259957 -0.846520601344057 2.267479742286E-006 -11.0612727851647 6.98013839241358E-006 -111.969070622467 0.179035463671887 125.383690142538 
0.65             0.999999892500687 -0.859767415273175 3.4821468531652E-006 -34.5010965619183 6.49548447313035E-006 -83.6599915946362 0.180488111806862 116.827561965503 
0.66             0.999999938836091 -0.873014178722748 4.86196063628022E-006 -48.8054931244835 5.32893131002355E-006 -48.9845734810457 0.181406554525145 108.564496755409 
0.67             1.00000000101202 -0.886261073192386 6.25655918357326E-006 -59.2341398364134 3.90218730122596E-006 -10.0409475069769 0.181753521778133 100.547667083824 
0.68             1.00000008064724 -0.899508310166945 7.5963730000809E-006 -67.5622624214246 2.92449410210127E-006 31.5135114789146 0.181508216593656 92.7389080225042 
0.69             1.00000017902426 -0.912756136198091 8.85187509901624E-006 -74.4820091278811 2.6076177885319E-006 70.5397688730639 0.180662917074834 85.1077755441379 
0.7              1.00000029681833 -0.926004834314269 1.00191835522548E-005 -80.3310454186984 2.70002120125567E-006 100.334740224938 0.179220973532541 77.6306306849565 
0.71             1.00000043377957 -0.939254719545911 1.11099309992594E-005 -85.3195660793362 2.93230286330093E-006 121.059658853189 0.177195727576753 70.2897806316983 
0.72             1.00000058840665 -0.952506126375942 1.21435293556382E-005 -89.6043659874526 3.18506593712973E-006 135.798363950912 0.17460994804122 63.0726725041278 
0.73             1.00000075767774 -0.96575938678923 1.31421398806837E-005 -93.3133876548027 3.42314128842176E-006 146.858916111357 0.17149544590523 55.9711244530728 
0.74             1.00000093692616 -0.979014799588195 1.41280138345178E-005 -96.5543948069891 3.64026636310215E-006 155.587649719196 0.167892601960955 48.9805805706023 
0.75             1.00000111994827 -0.992272594628479 1.51224765735945E-005 -99.4189403082224 3.83839747717243E-006 162.760654952312 0.16384962074577 42.0993842156049 
0.76             1.00000129939678 -1.00553289875661 1.61458797754611E-005 -101.985116051589 4.02123441290613E-006 168.844190214798 0.159421411403136 35.3280742648884 
0.77             1.00000146744161 -1.01879571200278 1.72180627747752E-005 -104.320016641989 4.1923494402226E-006 174.132565238627 0.154668084372609 28.6687174587717 
0.78             1.00000161659264 -1.03206090153197 1.83590681570575E-005 -106.482089646531 4.35474318184125E-006 178.820326588968 0.149653131994218 22.1242954318528 
0.79             1.00000174051275 -1.04532821662665 1.95899985844775E-005 -108.523379697406 4.51082641598334E-006 -176.958599083161 0.144441420458597 15.6981662498141 
0.8              1.00000183463969 -1.05859732195825 2.09339879828246E-005 -110.491679456665 4.66251215706076E-006 -173.108714557051 0.139097152208488 9.39361738290798 
0.81             1.00000189649288 -1.07186784120974 2.24173099226552E-005 -112.432642714167 4.81132044819894E-006 -169.559813825824 0.133681959587924 3.21352097669047 
0.82             1.00000192563766 -1.08513940099883 2.40706744709922E-005 -114.391959735414 4.95846880934638E-006 -166.258889250652 0.128253266060278 -2.83990548913594 
0.83             1.0000019233729  -1.0984116665692 2.59307788724874E-005 -116.417740661998 5.10494379842693E-006 -163.164967418626 0.122863009199849 -8.76523793278859 
0.84             1.00000189226045 -1.11168436458923 2.80421734288798E-005 -118.563306239282 5.25155574010442E-006 -160.245709062813 0.1175567704441  -14.5618952064856 
0.85             1.00000183561889 -1.12495729259948 3.04594608761875E-005 -120.890653924423 5.39898004006254E-006 -157.475107368722 0.11237331000569 -20.2301154153316 
0.86             1.0000017570733  -1.13823031763692 3.32497088825152E-005 -123.474953800919 5.54778826028968E-006 -154.83189076297 0.107344468299003 -25.7708772246883 
0.87             1.00000166020962 -1.15150336782758 3.64945853513413E-005 -126.410516156437 5.69847150724372E-006 -152.298389688314 0.102495371065121 -31.185784448796 
0.88             1.00000154834429 -1.16477642060414 4.02908138045654E-005 -129.818686223639 5.85145807032767E-006 -149.859716336249 0.0978448641738011 -36.4769306541509 
0.89             1.00000142439621 -1.17804949032144 4.47454147394972E-005 -133.857819601613 6.0071267450222E-006 -147.503160054195 0.0934061037017299 -41.6467579083822 
0.9              1.00000129083682 -1.19132261698341 4.99575414861351E-005 -138.734192153606 6.16581689055757E-006 -145.217734311048 0.0891872341303782 -46.6979207264708 
0.91             1.00000114969322 -1.20459585689606 5.59697715955076E-005 -144.708706757633 6.32783598665199E-006 -142.993832078618 0.0851920990791522 -51.6331631582103 
0.92             1.00000100258273 -1.2178692754408 6.26596432507176E-005 -152.084252342618 6.49346524441448E-006 -140.82296004873 0.0814209421177279 -56.4552141222016 
0.93             1.00000085076298 -1.2311429418061 6.95465340873341E-005 -161.139878608537 6.66296367305944E-006 -138.697531056723 0.0778710679003548 -61.16670368301  
0.94             1.00000069518676 -1.24441692535571 7.55800641157443E-005 -171.96498589736 6.83657089118455E-006 -136.610700101989 0.0745374449425026 -65.7701010438957 
0.95             1.00000053655522 -1.25769129327431 7.92266005850233E-005 175.792127261936 7.01450888764645E-006 -134.556233476603 0.0714132402785848 -70.2676735725965 
0.96             1.00000037536598 -1.27096610916005 7.92475913626427E-005 163.044148094881 7.19698287433656E-006 -132.528403380248 0.0684902829239336 -74.6614651394864 
0.97             1.00000021195473 -1.28424143228836 7.56945414637376E-005 150.956589234865 7.38418132559467E-006 -130.521902426408 0.0657594577209975 -78.953291359742 
0.98             1.00000004653004 -1.29751731733253 6.9851970834768E-005 140.387289334114 7.5762752625175E-006 -128.531773899582 0.0632110341216469 -83.144748928316 
0.99             0.999999879201935 -1.31079381438075 6.32170360766432E-005 131.629332737389 7.77341681220809E-006 -126.553354683532 0.0608349361236635 -87.2372360607734 
1                0.999999710004898 -1.32407096913522 5.67856764973294E-005 124.562565682968 7.97573705019212E-006 -124.582228565181 0.058620960295653 -91.2319810562575 
