! Touchstone file from project FYP_Sim_Actual_Separated_Ports
! Exported from HFSS 13.0.2
# GHZ S MA R 50.000000
! Terminal data exported
! Port[1] = PD1_Void_Port_T1
! Port[2] = Radiating_Plate_T1
0                0.999999998455678 0                5.44945623514209E-011 180              6.39474955957873E-011 180              0.999152239009163 0                
0.01             0.99999999999976 -0.0152049206523658 6.36768707435835E-011 124.205034264117 7.29401981988476E-011 127.100583827431 0.998361796847397 -7.15437819237191 
0.02             1.00000000545467 -0.0304106245543982 1.08679597658648E-010 75.6847402516049 1.17655461156897E-010 78.932970556908  0.996561553904049 -14.2279195044801 
0.03             1.0000000222287  -0.0456191580828944 2.17945958715053E-010 41.2912067026934 2.27769721156899E-010 43.1290767777785 0.994925755391218 -21.2496389247232 
0.04             1.00000019912423 -0.0608489783707418 4.34451440187741E-010 12.9026480664304 4.44845736918329E-010 13.5078080455627 0.993441873590532 -28.2428269547343 
0.05             1.00000003141614 -0.0759899145687835 8.01307849831919E-010 -17.7125615869276 8.06641187456506E-010 -17.6912839200579 0.992006373064482 -35.2111683565231 
0.06             0.999999996574964 -0.0912115001879048 1.23412924743755E-009 -51.839220348835 1.23098039921104E-009 -51.7299212671411 0.990589906605284 -42.153195727172 
0.07             0.999999998223016 -0.10642106803182 1.57490767068887E-009 -82.3670207172028 1.57254424633745E-009 -82.2045949643064 0.989208191547172 -49.0678528231873 
0.08             1.00000000043877 -0.121629248256446 1.91718763804552E-009 -106.965940215138 1.91678861947733E-009 -107.0196703075  0.987890250347602 -55.955971502978 
0.09             1.00000000126253 -0.136837556512535 2.4524221522994E-009 -131.651290805222 2.4475049929817E-009 -131.848650896764 0.98665778651329 -62.8205641037976 
0.1              0.999999999961589 -0.152046504338774 3.12150119171984E-009 -166.840306910992 3.11990277684527E-009 -166.833616977984 0.985511018713242 -69.6667345766322 
0.11             1.00000838124962 -0.165945747367001 5.38332855892867E-009 -172.593229778828 5.86653017034855E-009 -177.780268953684 0.984314714628531 -76.5004315636465 
0.12             1.00000328182889 -0.18111293844028 7.96811381704667E-009 -175.455631827978 9.0178865038277E-009 177.486875114378 0.983176073381595 -83.3148195698842 
0.13             1.00000152940344 -0.196402314142855 1.0893846375739E-008 -177.322180050715 1.25464577487084E-008 174.720087271623 0.982093086417072 -90.1148877923428 
0.14             1.00000078024327 -0.211695045373782 1.41919288546913E-008 -178.7433078531  1.64549934484235E-008 172.886815602495 0.981050033330598 -96.9065932580319 
0.15             1.00000041466774 -0.226979825688608 1.79021502436242E-008 -179.93106988241 2.07482276018899E-008 171.6384464422   0.980016900127724 -103.696760241144 
0.16             1.00000022258868 -0.242256015608649 2.20725243074333E-008 179.024318352459 2.54244840985516E-008 170.850095052159 0.97894912724453 -110.492985419215 
0.17             1.00000011756487 -0.257524557572147 2.67600576733858E-008 178.09133283868  3.0468422481447E-008 170.4991138079   0.977787603200742 -117.303554493281 
0.18             1.00000005921016 -0.272786544770833 3.20315089362163E-008 177.278139334807 3.58410467118718E-008 170.631073449393 0.976458815414933 -124.137374482608 
0.19             1.00000002694306 -0.288042952186787 3.79632901707551E-008 176.632436366309 4.14642539554989E-008 171.36063125956  0.974875069407741 -131.003924341734 
0.2              1.0000000096094  -0.303294600684864 4.46388649742593E-008 176.256119917941 4.71965544951592E-008 172.899497999256 0.972934690431598 -137.913224920057 
0.21             1.00000000089101 -0.318542172016146 5.21399625244415E-008 176.342125913684 5.27965644777114E-008 175.625865522507 0.970522127860816 -144.875827538103 
0.22             0.999999997095385 -0.333786232395534 6.05232942562993E-008 177.258966983171 5.78787868532336E-008 -179.756346528321 0.967507894291002 -151.902818515925 
0.23             0.999999996019685 -0.349027254366601 6.97653988953183E-008 179.76020240326  6.19224200382435E-008 -171.832282833876 0.96374829160362 -159.005834782627 
0.24             0.999999996335961 -0.364265634907503 7.96585719800293E-008 -174.415554315282 6.47339175116142E-008 -157.510555850566 0.959084910116471 -166.197083167018 
0.25             0.99999999724418 -0.379501709901665 8.99301526954144E-008 -160.449906704161 6.9675322327893E-008 -130.339102140325 0.953343940516072 -173.489353112221 
0.26             0.9999999982696  -0.394735765585863 1.06188767060111E-007 -122.094062504902 9.71856365234321E-008 -85.8423512897788 0.946335418469498 179.10399054415  
0.27             0.99999999914108 -0.409968047605549 1.94462707364104E-007 -29.3045145599588 1.94082018455456E-007 -37.1316354576016 0.937852635193567 171.569051193475 
0.28             0.999999999716267 -0.425198768207733 2.71665112322265E-007 53.8529922020859 3.56667510329044E-007 11.1341288706785 0.927672097804897 163.891499602064 
0.29             0.999999999934745 -0.440428111989991 2.96056731217665E-007 82.3409141204089 4.46621785470939E-007 50.0189485770476 0.915554608492018 156.056749067408 
0.3              0.999999999788271 -0.455656240528419 3.40390921922314E-007 91.5638483877446 4.72829568294213E-007 71.8515713707777 0.901248236222063 148.050225875007 
0.31             0.999999999301692 -0.470883296131765 4.07829058908667E-007 93.8188216689484 4.98516771302078E-007 83.2609898791113 0.884494142230847 139.857748755652 
0.32             0.999999998520665 -0.486109404911415 5.0316190300908E-007 92.6331760198208 5.38120352607974E-007 89.379741076238  0.865036323524288 131.466018776009 
0.33             0.999999997503811 -0.501334679313498 6.36316207235288E-007 89.2154200611346 5.94154241497717E-007 92.5588850762639 0.842636253393717 122.863199820555 
0.34             0.999999996317823 -0.516559220226953 8.23527850104619E-007 83.9151423172039 6.69027217574961E-007 93.8731207746994 0.81709299303376 114.039538101679 
0.35             0.999999995034604 -0.531783118757124 1.0893474215842E-006 76.6021122540066 7.67300457410293E-007 93.8242564439674 0.788268500294685 104.987927993045 
0.36             0.999999993729858 -0.547006457736478 1.46668015717207E-006 66.7465043714163 8.9705599082015E-007 92.613271833434  0.756116529082466 95.7042863621364 
0.37             0.999999992482797 -0.562229313030732 1.98357990435317E-006 53.4849875540977 1.07239912742975E-006 90.231758012314  0.720711840985161 86.1875597784569 
0.38             0.999999991376785 -0.57745175468914 2.60982980730556E-006 36.111616036556  1.31893949637795E-006 86.4487692231517 0.682274858010311 76.4391749824372 
0.39             0.999999990500865 -0.592673847981119 3.1792679660888E-006 15.5369417225134 1.68666276287528E-006 80.667169025423  0.641186044718723 66.4617701716621 
0.4              0.999999989952239 -0.607895654357321 3.49193018322745E-006 -4.82047404173425 2.28195077605736E-006 71.4568773555922 0.597984932584084 56.2571233663909 
0.41             0.999999989839852 -0.623117232371527 3.56393607403991E-006 -21.7085957870221 3.33434836518807E-006 55.024770841837  0.553351145694862 45.8233200009973 
0.42             0.999999990289399 -0.638338638600125 3.54861720356341E-006 -34.4596288928242 4.95939779257424E-006 21.4536820885507 0.508068669607977 35.1513551267471 
0.43             0.999999991450221 -0.653559928598606 3.55148421106012E-006 -43.9148845066538 4.89158709971959E-006 -29.6661377934506 0.462978734944107 24.2215232518418 
0.44             0.999999993504802 -0.668781157939578 3.61481496723095E-006 -51.0527559635222 3.29180484227377E-006 -64.9200796313281 0.418929512639126 13.0001093684946 
0.45             0.999999996681912 -0.684002383384585 3.75388945171926E-006 -56.5896279966697 2.30428980948124E-006 -86.674144772445 0.3767311760557  1.43710373835145 
0.46             1.00000000127496 -0.699223664252508 3.97832128746484E-006 -60.9948822452891 1.78704535313271E-006 -104.668884301773 0.33712256371345 -10.5339798070901 
0.47             1.00000000766787 -0.714445064060614 4.30101460469384E-006 -64.56990697101  1.53528128541169E-006 -122.302780018356 0.300751391843927 -22.9924867208076 
0.48             1.00000001637184 -0.729666652528946 4.74296006928737E-006 -67.5088537147434 1.46605007249965E-006 -139.93734896434 0.268164863902114 -36.0206718536022 
0.49             1.0000000280783  -0.744888508051596 5.33821965912659E-006 -69.9359542490266 1.54859959427586E-006 -156.535219723073 0.239802775809086 -49.684371813473 
0.5              1.00000004373554 -0.760110720741045 6.1420734865348E-006 -71.9259026385915 1.7747332170228E-006 -171.07384182091 0.21598235108549 -64.0026922053577 
0.51             1.00000006466088 -0.775333396126002 7.24663208921582E-006 -73.5118151342227 2.15610350528547E-006 176.657582676305 0.196865969593877 -78.9111157954955 
0.52             1.00000009270553 -0.790556659490586 8.81360862105849E-006 -74.6806573665974 2.73422567699427E-006 166.182052987701 0.182413676670338 -94.2336942807161 
0.53             1.00000013049777 -0.805780660606897 1.11506904211804E-005 -75.3474494212158 3.60168921415075E-006 156.672479288643 0.172341427682134 -109.688588654196 
0.54             1.00000018180062 -0.821005578089178 1.49169765684508E-005 -75.2738879116544 4.95008218535672E-006 146.997949489832 0.166119647471312 -124.940733249215 
0.55             1.00000025203214 -0.836231621533613 2.18045015774425E-005 -73.7849936747255 7.18222301680604E-006 135.289020546995 0.163033712064831 -139.682832370136 
0.56             1.00000034900283 -0.851459027626527 3.76904122006266E-005 -68.4014256625807 1.10805458408429E-005 117.532123785759 0.162290125857091 -153.701467223881 
0.57             1.00000048390739 -0.866688043146904 9.61930150104133E-005 -41.9903165008573 1.66309576405776E-005 85.7241328312116 0.163124443517028 -166.898430725275 
0.58             1.00000067252354 -0.881918883639566 9.04140913165479E-005 53.8970786335306 1.73348471317235E-005 43.7717205031684 0.164874657662111 -179.271851768936 
0.59             1.0000009363404  -0.897151654906678 4.22853891450917E-005 75.3281161727506 1.34216995426202E-005 16.4634612904797 0.167011493703453 169.119299338167 
0.6              1.00000130287586 -0.912386236948525 2.83362448911616E-005 80.1797822259062 1.04960708295827E-005 2.6005411110818  0.16913722858464 158.187876972428 
0.61             1.00000180382558 -0.927622182362129 2.22130974353947E-005 81.6992941682767 8.75020740028898E-006 -5.0277229460292 0.170968976915642 147.840828392759 
0.62             1.00000246955985 -0.942858803492846 1.89945188048468E-005 81.980977953311  7.6902719850197E-006 -9.55514879746879 0.172317902211635 137.991464616812 
0.63             1.00000332008242 -0.958095785854497 1.7215411427633E-005 81.5991132826454 7.03528796943271E-006 -12.2328500211474 0.173070107229559 128.564784386674 
0.64             1.00000435516456 -0.9733346840375 1.63203970719205E-005 80.7248283287085 6.64486813644352E-006 -13.5704658601321 0.173171078712991 119.498744427934 
0.65             1.00000554152525 -0.98858125937537 1.60935951815853E-005 79.3531177286944 6.45147254435573E-006 -13.7174654021865 0.172613625657634 110.743445504809 
0.66             1.00000676861443 -1.00384752937307 1.64996613573968E-005 77.3366421640855 6.43030551103594E-006 -12.5618120978647 0.171428555197798 102.259372198271 
0.67             1.00000771602537 -1.01914890626889 1.76613721601436E-005 74.3187878037442 6.58967872780902E-006 -9.66823561466986 0.169677259488165 94.0152684396632 
0.68             1.00000772897604 -1.03448428426671 1.99333385711991E-005 69.5019312198906 6.97146438992994E-006 -3.99316270512544 0.167445565467451 85.9858996218339 
0.69             1.00000632805304 -1.04980617810886 2.41053112960732E-005 60.9426120174426 7.63025349280675E-006 6.94653219419658 0.164838424658877 78.1497561273525 
0.7              1.00000418222376 -1.06505864692487 3.13629964121895E-005 43.392856932582  8.32393805335002E-006 28.9923679320521 0.161975177499278 70.4866224160192 
0.71             1.00000237942102 -1.0802500550349 3.69908548815008E-005 7.03141761175503 7.14330894204183E-006 68.3379796694628 0.158985130733198 62.9748286549951 
0.72             1.0000012465645  -1.09542011045002 2.66698683528877E-005 -32.9635185142777 3.6698114352726E-006 110.223648207174 0.156002938879937 55.5879064466776 
0.73             1.00000061483578 -1.11059238350954 1.5876522160669E-005 -53.3430966967863 1.39319113636562E-006 155.168501456691 0.153162632571174 48.2903207254142 
0.74             1.00000027539385 -1.12577388207921 9.96650600378027E-006 -62.5725444631672 9.6991593076387E-007 -127.202614390671 0.150587872052347 41.0320772902538 
0.75             1.00000009421397 -1.14096485340312 6.61641121594276E-006 -67.0008326525839 1.4647212704675E-006 -90.3430105706428 0.148373964467448 33.7426445257753 
0.76             0.99999999768757 -1.15616378413678 4.5298084797891E-006 -68.8672862458393 1.9255851591585E-006 -77.1465078138391 0.146554913921663 26.3264522385702 
0.77             0.999999946825846 -1.17136904918428 3.12543873024496E-006 -68.8484037314375 2.29425593682888E-006 -70.4963813737826 0.145049526050648 18.6661071856879 
0.78             0.999999920886768 -1.18657931245522 2.12383661427557E-006 -66.7776750851026 2.60296571269467E-006 -66.4582881289427 0.143593909592585 10.6449130988134 
0.79             0.999999908632292 -1.20179355583363 1.38167547132812E-006 -61.4014954154543 2.87773642594182E-006 -63.72315981331  0.141707588870953 2.2008253239477  
0.8              0.999999903839489 -1.21701102076255 8.32600500071285E-007 -48.5641537434588 3.1363627161497E-006 -61.7223518925229 0.1387927280725  -6.5966673414382 
0.81             0.999999902988875 -1.23223114347182 5.00223255637273E-007 -15.9630046443643 3.39155106757823E-006 -60.1632021151998 0.134426233502522 -15.5029505732731 
0.82             0.99999990405213 -1.24745350256547 5.18164253143714E-007 32.4937193338904 3.65323554842854E-006 -58.8757092222471 0.128673700876153 -24.1622342096556 
0.83             0.999999905841478 -1.26267778024655 7.65370746559429E-007 57.5110589701259 3.93007927116438E-006 -57.7507771357775 0.122095317294511 -32.2624119811041 
0.84             0.999999907652112 -1.27790373447474 1.05796865980133E-006 67.890752090795  4.23052297608536E-006 -56.7114040416802 0.115412939493554 -39.6535572366315 
0.85             0.999999909061176 -1.29313117911262 1.35352644511085E-006 73.0184651011287 4.56364166515524E-006 -55.6974229701036 0.109177572718317 -46.3482792667689 
0.86             0.999999909812409 -1.30835996972315 1.64821494132257E-006 75.9283845507879 4.9399932725496E-006 -54.6562281617963 0.103664705183484 -52.4486624328712 
0.87             0.999999909748755 -1.32358999332926 1.94630213431733E-006 77.7318619565833 5.37261929971282E-006 -53.5360360005415 0.0989370056615199 -58.0762773036616 
0.88             0.999999908772361 -1.33882116095558 2.25442428934569E-006 78.9123626634018 5.87837965527418E-006 -52.2797367758451 0.0949426216101896 -63.3354339832874 
0.89             0.99999990682054 -1.35405340213722 2.58057263235268E-006 79.7087921582924 6.4798749954587E-006 -50.817810657097 0.0915860750633594 -68.3031460545474 
0.9              0.99999990385119 -1.36928666083192 2.93429447858568E-006 80.2501371442918 7.20834330062444E-006 -49.0585287809655 0.0887657520650181 -73.0318522122101 
0.91             0.99999989983388 -1.38452089234395 3.32744552584969E-006 80.609996265536  8.10812678394483E-006 -46.8726832936367 0.0863895448502729 -77.5557596981809 
0.92             0.999999894744403 -1.39975606098511 3.77547694206727E-006 80.8310535448456 9.24353939969877E-006 -44.0679456011331 0.0843793626208209 -81.8968474752487 
0.93             0.999999888561445 -1.41499213827849 4.2995386137469E-006 80.9366698600217 1.07087929216102E-005 -40.3437449262332 0.0826708884655932 -86.0694099212645 
0.94             0.999999881264574 -1.43022910156616 4.93004295044792E-006 80.9360769798956 1.26388028049247E-005 -35.2105072708514 0.0812117141468791 -90.0831578059078 
0.95             0.999999872833047 -1.44546693292018 5.71305687913614E-006 80.8255166287572 1.52029100907452E-005 -27.8526723328045 0.0799591969309342 -93.9452089044554 
0.96             0.999999863245119 -1.46070561828396 6.72259233590188E-006 80.5854109970649 1.84958913956525E-005 -16.9642115912424 0.0788785313215638 -97.6613088819377 
0.97             0.999999852477687 -1.47594514678971 8.08635708885465E-006 80.1711063415431 2.20618368165828E-005 -0.942985658780573 0.0779411630824395 -101.236547614908 
0.98             0.999999840506113 -1.49118551021197 1.00460298813223E-005 79.488786647471  2.40704407900568E-005 20.2218488087908 0.0771235334935323 -104.67575658024 
0.99             0.999999827304179 -1.50642670252699 1.31213712216075E-005 78.3277768190842 2.26885006189207E-005 42.092845857236  0.0764060993515132 -107.983710617365 
1                0.999999812844106 -1.52166871955521 1.86682029674157E-005 76.1268300723232 1.92106926617257E-005 59.4076990040364 0.0757725697810325 -111.165213532577 
