! Touchstone file from project FYP_Sim_Actual_Separated_Ports
! Exported from HFSS 13.0.2
# GHZ Z MA R 50.000000
! Terminal data exported
! Port[1] = PD1_Void_Port_T1
! Port[2] = Radiating_Plate_T1
0                593234.76972229  -89.9879067980808 0.000907564835082908 -39.0404349393854 0.00023838209659878 -36.7851320633841 1191.2296593912  -89.2562636982186 
0.01             395341.193921693 -89.9999999711964 0.000511430142755562 -48.4823086415277 0.000125523788631394 -47.1480826856933 794.462302397151 -89.2432579863827 
0.02             197757.168539384 -90.0084777995722 0.000200313222607494 -73.0330720306224 3.68953943606531E-005 -84.9534540711178 397.963581206554 -89.1943461602398 
0.03             131854.331918021 -90.0053127588052 0.000120496902916948 -93.3787153672283 2.02087560593527E-005 -155.83319817214 264.783694680561 -89.1932203786251 
0.04             98894.3053259858 -90.0024354233322 8.14244325473401E-005 -130.631583405263 4.43103492964876E-005 143.928381126443 197.45962118398  -89.2015717331486 
0.05             79115.3182906763 -90.0005632901144 0.000113826014413273 143.352490465778 0.000116958435439025 115.308918331042 156.567577404421 -89.2016937566027 
0.06             65927.5373332514 -89.9996694217302 0.000286660539580357 49.9325059986079 0.000327476336392089 66.3368287220126 128.931755417747 -89.1929192555614 
0.07             56506.0603833481 -89.9996285806569 0.000296024107220535 -5.89316575616027 0.000350921021584528 -3.05916136527437 108.883123751958 -89.1779254458   
0.08             49438.1511617164 -90.0001607383684 0.00034025238500052 -30.4639810497459 0.000323125416963924 -29.9081343675783 93.5763235612586 -89.1588901068275 
0.09             43938.8341559509 -90.0006595744803 0.000584035132776158 -63.5026833933991 0.000493394387289783 -56.948033806613 81.4250797923411 -89.1366027004519 
0.1              39537.1926382509 -89.9999993701795 0.000493884424583817 -155.22688011847 0.000492412767382763 -155.038853814469 71.4744832118081 -89.1101976992575 
0.11             35946.0207257083 -90.0110983577638 0.000744016744102053 -164.656703160657 0.000706313419457844 -155.556958678787 63.1114954661111 -89.0741647158581 
0.12             32953.4465568235 -90.0202430958948 0.000938372890286639 -166.649093548963 0.00088751857278327 -155.076199236942 55.9482931534964 -89.0293518568602 
0.13             30421.2387846604 -90.0275755400583 0.0010930706560003 -166.259952486345 0.00104811578264992 -154.309948467064 49.6994000260471 -88.974296077725 
0.14             28250.6341071738 -90.0331670914637 0.00122421414437039 -164.792367135072 0.00119652694941026 -153.483247016406 44.1598303308525 -88.9061990796112 
0.15             26369.1741951919 -90.0370405728918 0.00134421873968418 -162.771013691124 0.00133888643803175 -152.701553765907 39.1781340230418 -88.8205464626278 
0.16             24722.4742451047 -90.0391745202675 0.00146276873217466 -160.491633918055 0.00147988916835304 -152.032781384024 34.6395242198096 -88.7103975479298 
0.17             23268.8874547669 -90.0394820679367 0.0015877725324683 -158.175517449455 0.0016232762947343 -151.533811704601 30.454932435126  -88.5651311749853 
0.18             21975.9284708236 -90.0377378486854 0.00172588792978271 -156.026271957926 0.00177206443483734 -151.261617451613 26.5536854443924 -88.3681965919244 
0.19             20817.7834710172 -90.0333706284162 0.00188251429904358 -154.253422580924 0.00192854759983567 -151.27869184238 22.8784746258561 -88.0928923570419 
0.2              19773.4688185151 -90.0248322774057 0.0020610605940425 -153.078263055305 0.00209403625801478 -151.654918830629 19.3818372242073 -87.6938946233171 
0.21             18825.2977421598 -90.0072922287017 0.00226118586438097 -152.720818825413 0.00226824057789989 -152.46424665074 16.0237155590792 -87.0886462855883 
0.22             17957.7672886274 -89.9616437860996 0.00247591347468538 -153.353374601505 0.00244823617735829 -153.766820748251 12.7699764574207 -86.1111436602813 
0.23             17171.4187632278 -89.7993331648001 0.00269080885052331 -154.977245527119 0.00262930978448073 -155.537191467689 9.592423285467   -84.375416840725 
0.24             16545.8826068389 -89.7518666560164 0.00289609128196753 -157.722111251003 0.00281564907515356 -158.023579238585 6.47378358230972 -80.7487838073109 
0.25             15886.1495523243 -89.9412392620011 0.00303194139697145 -161.352850506225 0.00296069488247842 -161.26981819979 3.4470798539651  -70.0892053654241 
0.26             15262.6109285325 -89.9882460776922 0.00309149427778496 -164.936548852997 0.00305696954074942 -164.684435844266 1.34951567683347 -3.00776198332625 
0.27             14690.0049571871 -90.0008462082448 0.00308099016326942 -168.007160335166 0.00309395757781755 -168.013431665433 3.52264833240486 63.4864253880898 
0.28             14160.7940225618 -90.0042008681231 0.00302000403368052 -170.183388812977 0.00306879459275263 -170.821627028766 6.72468784589073 73.9174217409418 
0.29             13669.298773962  -90.0044021964392 0.00293388983422022 -171.301808520379 0.0029933985380034 -172.663043532112 10.1446314769463 77.253751560209  
0.3              13211.2091583797 -90.0034257530138 0.00284406079910798 -171.382838523113 0.00289029123406459 -173.201563419706 13.7668411724763 78.5802908320927 
0.31             12783.0345886028 -90.0020564050564 0.00276482245528012 -170.546889001322 0.00278498914487839 -172.266855771206 17.6340577350656 79.003402798547  
0.32             12381.8388782748 -90.0006485899103 0.00270449867422993 -168.948128109654 0.00270046206339947 -169.853338254446 21.8107063430061 78.8787559816018 
0.33             12005.0986392241 -89.9993732125742 0.00266770362065074 -166.739718453081 0.00265557332935241 -166.095363199331 26.3810494363967 78.3313681085582 
0.34             11650.6164662362 -89.998312674464 0.00265726537726879 -164.06215476554 0.0026662661074573 -161.24412201345 31.4532884910755 77.3868911227563 
0.35             11316.4616550328 -89.997502745834 0.00267550156500019 -161.044294801918 0.00274776637145277 -155.650223287495 37.1659759007973 76.0109053722174 
0.36             11000.926600682  -89.9969531668308 0.00272495544914124 -157.810448685588 0.00291688398740072 -149.744667139262 43.6950101438539 74.1174885603715 
0.37             10702.493111392  -89.9966587221036 0.00280870103199242 -154.490210771297 0.00319414716663439 -144.015345315426 51.2571739570115 71.5631656051325 
0.38             10419.8055158525 -89.9966056091245 0.00293014433586711 -151.229023012316 0.00360541667361764 -138.987195395451 60.0984394654571 68.1313421024004 
0.39             10151.6487062496 -89.9967752729624 0.00309190456481682 -148.195524780507 0.00418136658668609 -135.216428157808 70.4353984788162 63.5122373468057 
0.4              9896.92992137399 -89.9971467733369 0.00329284415213831 -145.572569260777 0.00494986387618881 -133.290603076998 82.2757956600962 57.2951549958411 
0.41             9654.66345125782 -89.9976982485197 0.00352231101324102 -143.494900083825 0.005910394340851 -133.779615484415 94.993439974265  49.0258176491638 
0.42             9423.95767546035 -89.9984077957818 0.00375475928583701 -141.869161303183 0.00698042765944806 -137.016720786161 106.650417184713 38.4413515815094 
0.43             9204.00399712778 -89.9992539595413 0.00396157209598813 -140.108764842142 0.0079490063088437 -142.634898727266 113.826411232645 25.9499953577439 
0.44             8994.06733749924 -90.0002159457279 0.00415725143304955 -137.233702190115 0.0085610306091847 -149.247419797539 113.561973074786 12.9627828209455 
0.45             8793.47792855807 -90.0012736371764 0.00442943990224823 -132.767764521956 0.00873357857542196 -155.042702475174 106.304459152086 1.30643887975978 
0.46             8601.62419529809 -90.0024074569167 0.00488769044330762 -127.340742816173 0.00860391760157023 -158.884994341283 95.3739731761101 -7.87319167072912 
0.47             8417.94655979475 -90.0035981076831 0.00561240082987247 -121.975526591922 0.00835896670464715 -160.605272516537 83.897772692522  -14.4004978327391 
0.48             8241.93203088726 -90.0048262036598 0.00667538942447722 -117.30386400426 0.00811889813073112 -160.548153531175 73.477538998137  -18.6173180755063 
0.49             8073.10946838056 -90.0060718033277 0.00818905184663909 -113.532922215842 0.00793636414957041 -159.150632698372 64.5930292389635 -20.9635999543242 
0.5              7911.04543102739 -90.0073138502579 0.0103610246698616 -110.689642596716 0.0078279067018896 -156.770147749404 57.221089510714  -21.8090676896887 
0.51             7755.34053435341 -90.0085295335089 0.0135883884514587 -108.7963293774  0.00779689089300868 -153.653966645929 51.1831134070262 -21.4278938572532 
0.52             7605.62625838946 -90.0096935936312 0.0186880153857317 -107.985766397414 0.00784593302637211 -149.954993037279 46.2860331189855 -20.0206141392598 
0.53             7461.56215685169 -90.0107776289938 0.0275847431280178 -108.690464716738 0.00798448266145351 -145.758537041115 42.3667749787695 -17.7444627973462 
0.54             7322.83342789374 -90.0117495055996 0.0459696304429224 -112.337541538212 0.00823609810647999 -141.117902720393 39.2992688451182 -14.7407447666707 
0.55             7189.14881023928 -90.012573041513 0.0986726902424083 -125.755709943588 0.00864836613177631 -136.11582873606 36.9886682275759 -11.1559010472672 
0.56             7060.23878391856 -90.0132080728281 0.226473164860441 161.048514628711 0.00930580559721834 -130.982857761047 35.362117650995  -7.15394481348828 
0.57             6935.85401156522 -90.0136124593078 0.106550635837092 107.055044041277 0.0103366019173312 -126.288732141738 34.3596490074579 -2.91808345257786 
0.58             6815.76388370365 -90.0137433255584 0.068482604306026 95.8144426076087 0.0118772112624179 -123.095472333486 33.9268293134213 1.35875095342829 
0.59             6699.75533339802 -90.013562529509 0.054802556016687 90.8613553749259 0.0139286589446487 -122.686997666836 34.0099501655874 5.49102166668593 
0.6              6587.6314159645  -90.0130428008632 0.0492486619649181 87.546247214999  0.0161455118298189 -125.549626806897 34.5538093218976 9.31883682736893 
0.61             6479.20977612187 -90.0121756400379 0.0478137642441997 84.7926260105093 0.0179485321470883 -130.504357068629 35.5014515840292 12.7209031981708 
0.62             6374.3207801202  -90.0109792185819 0.0493703413048842 82.2955655612935 0.0190818242718687 -135.612385211862 36.7948921436453 15.6191166581253 
0.63             6272.80532250384 -90.0095036973505 0.0539685087570114 80.0542087886408 0.0197614556744042 -139.778389142926 38.3760174229825 17.9757459403875 
0.64             6174.51249471588 -90.0078310336265 0.0626657540701912 78.3194241046441 0.0202999151218149 -142.941970867411 40.1873525154762 19.7863631907126 
0.65             6079.2974969936  -90.0060673828787 0.0782520294291854 77.7729657867256 0.0208886284223774 -145.454495698953 42.1728670315446 21.0715713837048 
0.66             5987.02023823176 -90.0043287564116 0.107875598463679 80.2502376474513 0.0216088682583019 -147.679971918167 44.2792126201844 21.8692363883878 
0.67             5897.5449050373  -90.0027235339556 0.170662922372056 91.7666724502713 0.0224852472443629 -149.888091561898 46.4576433821176 22.2275538326467 
0.68             5810.74041539022 -90.0013369978089 0.261334441195556 130.521791627955 0.0235187459991139 -152.259774765143 48.6663755827661 22.1985178607421 
0.69             5726.4814593194  -90.0002234002473 0.19016516129463 174.563761731734 0.0247013216977041 -154.914804203872 50.8724308659877 21.8313704405499 
0.7              5644.64963617927 -89.9994026605816 0.119498033524636 -171.532483689325 0.0260208125045666 -157.936418665605 53.0513924114995 21.1663178770485 
0.71             5565.13393141057 -89.9988665153709 0.0857902571734085 -169.095250681147 0.0274606782415735 -161.388649039843 55.1834832933157 20.2298624769824 
0.72             5487.83102032495 -89.9985869822075 0.0676865283721553 -170.643731446658 0.0289963025624833 -165.326042170669 57.245521524564  19.0339953492645 
0.73             5412.64496131014 -89.9985247146363 0.0567354778691746 -173.973531801511 0.0305889425025658 -169.795406303918 59.2006804177028 17.5813207232247 
0.74             5339.48660877419 -89.9986362608019 0.0495175107652636 -178.263445513799 0.0321793062555368 -174.829707944565 60.9908489000607 15.8762387933899 
0.75             5268.27290539554 -89.9988791409727 0.0444332527915986 176.862160131617 0.033684194587306 179.563684887371 62.5376726249748 13.9388876681    
0.76             5198.92617429945 -89.9992148405107 0.0406408711960292 171.614315267069 0.0350001508942278 173.415480087235 63.7557259345117 11.8155801111178 
0.77             5131.37348088418 -89.9996101865562 0.03766010537381 166.139947123635 0.0360161524964142 166.801545188041 64.574569679798  9.5797663633867  
0.78             5065.54609087979 -90.0000376444753 0.0352051338082311 160.557437217021 0.0366331879560352 159.840529049367 64.9598420866777 7.32207602523646 
0.79             5001.37902465454 -90.000474986871 0.0331039531884444 154.964913440032 0.03678457659973 152.682216912304 64.922969937724  5.13394879010789 
0.8              4938.81069514671 -90.0009046593524 0.0312533599195475 149.43902513088  0.0364499098285002 145.490266178115 64.5158443378164 3.0922455506619  
0.81             4877.78261304872 -90.0013130485621 0.0295909913177715 144.033591807746 0.0356580223358628 138.423827971626 63.8152009224268 1.25028500641086 
0.82             4818.23914371998 -90.0016897684302 0.0280776407078816 138.781490105564 0.0344786862017233 131.621683648655 62.9050197293191 -0.363611538242967 
0.83             4760.12730297109 -90.0020270210829 0.0266866918960793 133.699270082187 0.0330066522952393 125.191347384996 61.8631388403816 -1.74229058754452 
0.84             4703.39658184022 -90.002319052871 0.0253983942890277 128.792646199314 0.0313436980781311 119.204350713942 60.754069383842  -2.89374985924356 
0.85             4647.99879310867 -90.0025617062657 0.0241970963914649 124.06133719893  0.029583809075022 113.697431720176 59.6269885835706 -3.83523966295796 
0.86             4593.88793437439 -90.0027520588713 0.0230700495843234 119.50256027421  0.0278041946409227 108.677991203163 58.5168768980389 -4.58859106210234 
0.87             4541.02006403863 -90.0028881370969 0.0220069111921971 115.113138550374 0.0260621452633023 104.131575766174 57.4470250671932 -5.17699759229628 
0.88             4489.35318765642 -90.0029686915781 0.0209994821696534 110.890502720481 0.0243960867915327 100.02942350085  56.4317901476373 -5.62303956408287 
0.89             4438.84715286314 -90.0029930224286 0.020041473973697 106.832946652013 0.0228288248781387 96.3348596632258 55.4790516152856 -5.94761369783753 
0.9              4389.46355160968 -90.0029608440547 0.0191282400285404 102.93945504295  0.0213714088747136 93.0080838744904 54.5921819316956 -6.1694572386126 
0.91             4341.16562878874 -90.0028721810266 0.0182564725083522 99.209340291611  0.0200266966801053 90.0093988452208 53.7715317455927 -6.30503126473367 
0.92             4293.91819656871 -90.0027272881387 0.0174238886668423 95.641845159512  0.0187922359519563 87.3011710834835 53.0155043306594 -6.36860341978059 
0.93             4247.68755390823 -90.0025265892072 0.0166289336779125 92.2358018605117 0.0176624031839034 84.8488688158    52.3213105061515 -6.37242925409898 
0.94             4202.4414108283  -90.0022706303261 0.0158705207138675 88.9893896550669 0.0166298961027396 82.6214828053419 51.6854870041437 -6.32697224056063 
0.95             4158.14881709036 -90.0019600442564 0.0151478200684531 85.9000002982078 0.0156867224145119 80.5915647198167 51.1042451153608 -6.24112890523608 
0.96             4114.78009497719 -90.0015955233757 0.0144601007483791 82.9642009118615 0.0148248227376846 78.7350477674039 50.5737001166517 -6.12244168436196 
0.97             4072.30677590893 -90.0011777991916 0.0138066215625604 80.1777739239988 0.0140364405386176 77.0309578763715 50.0900182318275 -5.97729161749855 
0.98             4030.70154065225 -90.0007076269011 0.0131865647304821 77.5358107072268 0.0133143237010504 75.4610826799548 49.6495072472293 -5.81106832731798 
0.99             3989.93816290081 -90.0001857738029 0.0125990031931102 75.0328369080941 0.0126518178581057 74.0096377046803 49.2486690649539 -5.62831757694736 
1                3949.99145602179 -89.9996130106761 0.0120428926267938 72.6629511464872 0.0120428926269542 72.6629511461994 48.8842268575217 -5.43286807926604 
