! Touchstone file from project FYP_Sim_Actual_Separated_Ports
! Exported from HFSS 13.0.2
# GHZ Z MA R 50.000000
! Terminal data exported
! Port[1] = PD1_Void_Port_T1
! Port[2] = Radiating_Plate_T1
0                601543.83935546  -89.9919518085307 0.000530553850818406 -17.875727274127 0.000530553288640579 -17.8758825505632 1228.7896372112  -89.2738299467444 
0.01             400794.763542328 -89.9999999779192 0.000240364466006003 -29.2216469674129 0.000240364424648391 -29.2218735249402 819.452945611124 -89.2617788683393 
0.02             200438.525175427 -90.0116450164858 7.96768067330095E-005 -104.572494445791 7.96772657930067E-005 -104.572517522345 410.391310516375 -89.2141342617141 
0.03             133642.899284176 -90.0085370498738 0.000110250150634407 -138.732600962545 0.000110250434695948 -138.732502351101 272.996215510651 -89.2123666946714 
0.04             100230.487449381 -90.0032351050063 0.00016166833581677 -151.595733060679 0.000161668544363029 -151.595653605748 203.540119781396 -89.2201541483273 
0.05             80177.9461272786 -90.0005426412806 0.000253292333278923 -165.512897182797 0.000253292485505774 -165.512832540376 161.348342408858 -89.2201114232338 
0.06             66808.77632383   -89.9997761746741 0.000409152322945196 167.238231755326 0.000409152382011751 167.238304381125 132.82850369372  -89.211448841997 
0.07             57259.4191477519 -89.9998227914794 0.000489727227924611 126.493422781162 0.000489727412862633 126.493509293028 112.132928275221 -89.1966884547625 
0.08             50097.490104026  -90.000054492757 0.000464589975214488 97.7580380991451 0.000464590243018868 97.7581083077668 96.3267682172673 -89.1778768885694 
0.09             44527.1212035305 -90.0001635610323 0.000539281195686112 73.9983298869431 0.000539281438461867 73.9983913770423 83.7738786128413 -89.1556858672167 
0.1              40070.7966934927 -89.9999993971035 0.000688159714182629 15.0515915058328 0.000688160209485138 15.0516716372908 73.4892882556958 -89.1291224449712 
0.11             36428.1016825421 -90.0002083970121 0.000527510604281166 32.0271661721599 0.000650505150801086 40.0033021500692 64.8452231476869 -89.0869790901769 
0.12             33392.4998926285 -90.0003369961736 0.000424513214941522 57.5959752094879 0.000673935380265974 65.2413707221629 57.4361737378882 -89.0374050351779 
0.13             30823.8896271709 -90.0004012580207 0.000410806011102165 90.4610046103415 0.000754094761585953 88.6688226701036 50.9677878670595 -88.9784299401118 
0.14             28622.1991475253 -90.0004153551918 0.000498163106949064 120.340406387535 0.000882618493510703 109.4635030152   45.2286800416702 -88.9067006702672 
0.15             26714.0433454639 -90.0003919797851 0.000660511333650915 142.187049927163 0.00105219764300344 127.975341761576 40.0626418258298 -88.817031577556 
0.16             25044.3841237431 -90.0003424880414 0.000875310303618963 158.572057646286 0.00125835021408304 144.950126880701 35.351244048204  -88.7015929697632 
0.17             23571.1341448039 -90.0002769254861 0.00113557087941105 172.315749824716 0.00149816410077051 161.09340781359  31.0025488329223 -88.5484804807391 
0.18             22261.5593149338 -90.0002040113701 0.00144206037691378 -174.8921059368  0.00176792884948613 176.956761484769 26.9435553237694 -88.3391254669729 
0.19             21089.8173213213 -90.0001311223056 0.0017964954632849 -162.034983291054 0.00206047539229477 -167.067812317859 23.1150115420165 -88.0433589081075 
0.2              20035.2346112879 -90.0000642912918 0.0021949111720655 -148.436829479835 0.00236284205316825 -150.743606545632 19.4677945444201 -87.6092942386525 
0.21             19081.075672291  -90.0000082238581 0.00261888647405606 -133.653841461583 0.00265558030041813 -133.993100017926 15.9604321034792 -86.9404695791592 
0.22             18213.6479758973 -89.9999663242029 0.00302685908005894 -117.52170943885 0.00291541420103829 -116.892457748709 12.557718428469  -85.8368448070061 
0.23             17421.6404302511 -89.9999407186486 0.00335627773460748 -100.267100270778 0.00312146779714329 -99.6300646111886 9.23130839369171 -83.8102129147924 
0.24             16695.6272368567 -89.9999322602431 0.00354855616691717 -82.5048386870782 0.00326195392197654 -82.4227141916737 5.96809200028677 -79.3010093981605 
0.25             16027.6908408964 -89.9999404945345 0.00358355050906037 -64.9720747140559 0.00333671005736045 -65.4190422420618 2.84603195340768 -63.8094666447247 
0.26             15411.1319144685 -89.99996356179  0.00348696187022832 -48.1426485472514 0.00335409698455811 -48.6319292167919 1.64783755397759 28.4790322362108 
0.27             14840.2438130657 -89.9999980034653 0.00330516939080384 -32.02377128045  0.00332511539572076 -31.9142130876582 4.51829590924645 67.9466846161585 
0.28             14310.1353939751 -90.0000384284159 0.00307939809783738 -16.1773167081629 0.00325838111898004 -14.9571050459873 7.94811767216818 75.3075968051551 
0.29             13816.5905342608 -90.0000769736345 0.00283842778262135 0.229284532442091 0.00315755936118434 2.72267440967769 11.5850224723737 77.9019801229087 
0.3              13355.9558031973 -90.0001024595716 0.00260724298392776 18.4957563222494 0.0030214541242683 21.8392514535153 15.4394743403443 78.9366140993233 
0.31             12925.0499613208 -90.0000990829924 0.00243044079292324 40.5362903054813 0.00284796933325259 43.4694398008918 19.5625151120729 79.2107400071031 
0.32             12521.0905612439 -90.0000443938169 0.00242136876547173 68.3751882186481 0.00264739072638475 69.2694859437708 24.0256272900874 78.9953692644804 
0.33             12141.6341088568 -89.9999061381552 0.0028292529222192 101.17159155683  0.00247748648182522 101.493031193443 28.9211710076161 78.3843009937239 
0.34             11784.5271491327 -89.999637264386 0.00404395867489354 133.359919299004 0.00249921693850546 141.165506258428 34.3673633865532 77.3892072629855 
0.35             11447.8663882739 -89.9991678883448 0.00663167991690925 161.943025184101 0.00293824088882495 -176.609117734127 40.5153766980909 75.9684267733237 
0.36             11129.9666923409 -89.9983921349343 0.0116161583909733 -169.587109863727 0.00386423051985138 -139.702505050083 47.5569334305379 74.0318599363446 
0.37             10829.3367558159 -89.9971462917016 0.0197482396309422 -134.357516994105 0.00516561157804527 -110.418018738476 55.7280452021946 71.433528505577  
0.38             10544.6639945858 -89.9951726129893 0.0259130817481973 -92.9343392994627 0.00673712101843701 -87.6472447083635 65.2961011143272 67.9556050432822 
0.39             10274.8144210674 -89.992062744978 0.0255599475213454 -62.0204734790508 0.00855670609266043 -70.2370761597208 76.4960600505203 63.288576505824  
0.4              10018.8649191832 -89.9871939172761 0.0238059200950111 -45.4384546906936 0.0106530484383532 -57.5288289814995 89.3361336398615 57.0242940932381 
0.41             9776.21856667988 -89.9798258935831 0.0226324601225933 -38.174527500904 0.0130173890057097 -49.194648988619 103.140219319883 48.7141080209065 
0.42             9546.91764755428 -89.9705569213618 0.0216820952517838 -37.1126934048608 0.0154706812131659 -44.9133009853129 115.823373644938 38.1020952890778 
0.43             9331.84033718993 -89.9705507985063 0.0202530404503007 -40.286474952055 0.017572712994117 -43.8496027835341 123.714253050803 25.5957712393428 
0.44             9127.6252385006  -90.0173041609771 0.0179274244147097 -45.5743519918248 0.0188164199352146 -44.3034131387409 123.625728565885 12.5869766674062 
0.45             8923.15883582307 -90.081849681125 0.0148922609986003 -50.7302705483559 0.0190799299357484 -44.1547155222428 115.994437502967 0.875004467419541 
0.46             8724.69337368783 -90.1012613793654 0.011685216712583 -54.2866677026758 0.0187510528775236 -41.9354579483497 104.345335209829 -8.40693123111153 
0.47             8537.09629255351 -90.0994792367878 0.00865818259965536 -55.8315676993425 0.0183032433771684 -37.2031114095618 92.0387826794976 -15.0805182245655 
0.48             8359.04150353557 -90.09166599531  0.00587371668669761 -55.2537523173157 0.0180432068300652 -29.9624936960345 80.8194232587708 -19.4823605487143 
0.49             8189.02847184993 -90.0803893343218 0.00324089738949102 -51.2504991365917 0.0181406677203014 -20.1896652446158 71.2238727865463 -22.0506748784051 
0.5              8025.93206867776 -90.0660105998029 0.000727851083463415 -16.2867909080936 0.0187087574661  -7.58270925915927 63.2388447134543 -23.1567475974616 
0.51             7868.9141815038  -90.0496992847496 0.0024062556307002 109.861873822773 0.0198430540612964 8.60056930513379 56.6764440456516 -23.0777571630121 
0.52             7717.44179174128 -90.0335129542245 0.00571263231107204 118.178884703854 0.021553176754147 29.6693795744356 51.3285703217481 -22.0166839528434 
0.53             7571.25137786557 -90.019347142157 0.00980048031922804 121.783010826969 0.0234203909869942 57.2579063500042 47.0166832868343 -20.1305155325302 
0.54             7430.2165373337  -90.0081492357276 0.0150997899158712 124.395425901637 0.0240841985519067 91.5051982516947 43.6006194442932 -17.5553666125304 
0.55             7294.22190226634 -89.9999402374981 0.022305881384908 126.665939462193 0.0224082714048037 128.15571175185  40.9733827695145 -14.4256332309965 
0.56             7163.10991957104 -89.9942474408016 0.0325964493939227 128.877147939856 0.0196726872666015 161.393394919541 39.0521722052733 -10.8858014559497 
0.57             7036.68284030619 -89.9904827345691 0.0481333908949733 131.339598642507 0.0175645961204134 -170.886115849502 37.7694817244022 -7.09369472543696 
0.58             6914.72234804045 -89.9881332677825 0.0733012783560417 134.651935785709 0.0165055881247408 -148.226797638275 37.0658437693773 -3.21505786919747 
0.59             6797.00684619592 -89.9868188681493 0.11813186654948 140.284849957069 0.0163376557402265 -129.700235302165 36.884898846737  0.588292330292555 
0.6              6683.32190011658 -89.9862908105116 0.207596589456075 152.57039762959  0.016866476298297 -114.426887130478 37.1708637229143 4.17229214331415 
0.61             6573.46515127226 -89.9864170756264 0.366223190333574 -176.025612950982 0.0179880526450668 -101.645660021854 37.8679119175983 7.42157762353082 
0.62             6467.24778185621 -89.9871740352426 0.373230906724477 -130.435946987479 0.0196918399082541 -90.7276196592285 38.9206322347919 10.2545749038917 
0.63             6364.49300038298 -89.9886536154554 0.270554590629312 -109.270556365766 0.0220530477583719 -81.1597137437781 40.2747239176614 12.6225925344939 
0.64             6265.03162862697 -89.9910957097397 0.209341956689715 -103.171853735768 0.0252411186242037 -72.5056407348062 41.8773854619084 14.5048248102848 
0.65             6168.69125632579 -89.9949310853773 0.173932815879196 -102.803757186576 0.0295542872788272 -64.3509457169287 43.6772087942876 15.9017613311992 
0.66             6075.27233527235 -90.0007858989001 0.150659158334611 -104.990619078232 0.0354947171033637 -56.225868115259 45.6236763670112 16.8288973582555 
0.67             5984.50753056988 -90.0092249902035 0.133508606864205 -108.412189570968 0.0439094926639108 -47.4770816223704 47.6665136506477 17.3117366627849 
0.68             5896.04200205724 -90.0197627519091 0.119791174468646 -112.375609924191 0.0562041787151082 -37.0196520565564 49.7551803658554 17.3823137685018 
0.69             5809.57828617726 -90.0293739246043 0.108261851576864 -116.468205728791 0.0743119850366318 -22.8620837771615 51.838749518954  17.077020080317  
0.7              5725.19897661668 -90.0336775113935 0.0983277360012465 -120.439416308329 0.0979300819580123 -1.72261792424476 53.8663453355176 16.4353439135735 
0.71             5643.29400619471 -90.031728951427 0.0896818894069735 -124.147657976155 0.113435616534114 27.7176765275414 55.788202943949  15.4991230655035 
0.72             5564.04250712675 -90.0264877015535 0.0821300999748112 -127.521981625984 0.103597268950923 56.5251852739046 57.557284713976  14.3119788367009 
0.73             5487.30852898291 -90.0208271469312 0.075522455565628 -130.529366768013 0.0836566960937408 76.1324317044039 59.1312560170351 12.9187104950231 
0.74             5412.86736070328 -90.0159808453584 0.0697329593384206 -133.152792439618 0.0674789373498615 88.0819668750221 60.4745111789993 11.3645420376669 
0.75             5340.53026145197 -90.0121660804518 0.064653864490881 -135.378437341193 0.0562105136220007 95.5952348018104 61.559902665759  9.69422130262356 
0.76             5270.15727380826 -90.0092468780465 0.0601936356769927 -137.187974520594 0.0484110099308146 100.579381534863 62.3698643709121 7.95106451409879 
0.77             5201.64171149113 -90.0070246709567 0.056275431415614 -138.553544804382 0.0429175136288598 104.036829956172 62.8967437185793 6.17608712019795 
0.78             5134.89667604092 -90.0053261636509 0.0528350913000007 -139.433818432811 0.0390181048984807 106.519272331537 63.1423366929622 4.40736914643559 
0.79             5069.84709259751 -90.0040184234265 0.0498183414325204 -139.769866587105 0.0363077618892932 108.355302540764 63.1167994830944 2.67976801489313 
0.8              5006.42543644004 -90.0030036800271 0.0471770110741609 -139.479813043253 0.0345841808739711 109.759280721884 62.8372417450999 1.02502262672217 
0.81             4944.56946351938 -90.0022107727373 0.0448636731201239 -138.451531896831 0.0338053137288999 110.889012295853 62.3263582784406 -0.527798673331506 
0.82             4884.22096941532 -90.0015877546809 0.0428233573383199 -136.53324579778 0.0341099927758906 111.886290339053 61.6114197275614 -1.95165862626992 
0.83             4825.32507298374 -90.001096365631 0.0409799039321422 -133.523500260364 0.0359479346690365 112.927656903772 60.7238239473602 -3.22098670205047 
0.84             4767.82977202183 -90.0007081011875 0.0392137696470776 -129.166449377839 0.0405337241936427 114.34636460149  59.6992142181289 -4.31156932793926 
0.85             4711.68564376981 -90.0004014567065 0.0373308314027898 -123.16906350862 0.0517556390398666 117.116528951587 58.5779055721814 -5.20134797124582 
0.86             4656.84562226199 -90.0001599668861 0.0350375275911553 -115.275751055428 0.0897561929613646 126.454527236156 57.4050581385183 -5.87252489460899 
0.87             4603.26480567785 -89.999971937745 0.0319790060178939 -105.445352413718 0.203162044961879 -135.843735184379 56.2298000309199 -6.31506363390007 
0.88             4550.90050144793 -89.9998255843601 0.0279268289937944 -94.1029659090519 0.0459647332655894 -89.0645208644514 55.1025394202462 -6.53098637735761 
0.89             4499.71165808973 -89.9997142576338 0.0230586152510977 -82.2323936914348 0.020445463820499 -84.8289734964118 54.0702076607886 -6.5380232574445 
0.9              4449.65923096155 -89.999631652467 0.0179799342394922 -71.036220110115 0.0112804280908564 -85.7267550926397 53.1702549116671 -6.37053767091917 
0.91             4400.70583706886 -89.9995727237979 0.0133408791654475 -61.3924833049001 0.00681832787110054 -89.4485750120715 52.4252161625367 -6.07622528153187 
0.92             4352.81570796406 -89.9995334072599 0.00949062436796771 -53.6504340217721 0.0043323884180552 -96.2189826439323 51.8400211500341 -5.70881684002605 
0.93             4305.95460456593 -89.9995103885502 0.00646979454284314 -47.8312548971966 0.0028758161614379 -107.025828991982 51.40323213849   -5.3191311273354 
0.94             4260.08973672181 -89.999500943103 0.00416367703638214 -43.9691575080601 0.0020501064590801 -122.68218476326 51.0916700812668 -4.94768525562423 
0.95             4215.18968783701 -89.9995028154802 0.00242266256712207 -42.6449703959305 0.0016530287021517 -141.752029629889 50.8765433204315 -4.62104375405881 
0.96             4171.22434418955 -89.9995141267723 0.00112076898544155 -47.4357637575865 0.00153066579966374 -159.851592042299 50.7290205058776 -4.35208967547088 
0.97             4128.16482856249 -89.9995333026408 0.000302201737926203 -104.687625048854 0.00154672689464829 -173.727621274231 50.6239975897142 -4.14288472480769 
0.98             4085.98343786745 -89.9995590168604 0.000747277847494414 175.644706634284 0.00161192972772842 176.66437967994  50.5418413105706 -3.98841624999077 
0.99             4044.65358447033 -89.9995901466297 0.00130645332455665 167.39382963361  0.00168390572264159 170.134569270971 50.4685675551818 -3.87999650860945 
1                4004.14974096066 -89.9996257369366 0.0017465646802448 165.626488149915 0.00174656468254588 165.626488150274 50.3951134648844 -3.80776216456388 
