! Touchstone file from project FYP_Sim_Actual_Separated_Ports
! Exported from HFSS 13.0.2
# GHZ Z MA R 50.000000
! Terminal data exported
! Port[1] = PD1_Void_Port_T1
! Port[2] = Radiating_Plate_T1
0                565601.417447618 -89.9997776572424 0.000359921996433612 -37.6784150230329 0.00041685170283029 -35.488958740783 1199.14790827238 -89.2590817371504 
0.01             376823.927508729 -89.9999999482637 0.00019242949866366 -51.4588846417006 0.000220422982598381 -48.5633350783869 799.739597020577 -89.2457742146454 
0.02             188407.107728059 -90.0005888284352 8.2803545973437E-005 -96.3961031419266 8.96423026659577E-005 -93.1478728366234 400.590007099151 -89.1971047350094 
0.03             125595.865578652 -90.0015996028578 7.44132897957229E-005 -127.285938573451 7.77674170563491E-005 -125.448068498366 266.509569093631 -89.1958355912599 
0.04             94160.6164226177 -90.0107427662833 8.41046720548447E-005 -152.207056351939 8.61168852434786E-005 -151.601896372807 198.727022514831 -89.2033781706866 
0.05             75399.1781982115 -90.0013571949487 0.000100269465252494 -179.345825223174 0.000100936837863084 -179.324547556304 157.554217448916 -89.2025261947804 
0.06             62816.3853183393 -89.999876728968 0.000108288064896472 149.985859592885 0.000108011770754826 150.095158674579 129.726234097739 -89.1928603953645 
0.07             53838.740862602  -89.9999451847435 0.000102647521878833 122.901145775344 0.0001024934813231 123.063571528241 109.535649223159 -89.1771453569145 
0.08             47106.8914902352 -90.0000118425782 9.68351513652998E-005 101.729862356266 9.68149973528907E-005 101.676132263903 94.1178539502501 -89.1575749233427 
0.09             41871.3646601233 -90.0000302887637 9.91721939034074E-005 80.4574925739397 9.89733515153418E-005 80.2601324823974 81.8758413592116 -89.1349148793805 
0.1              37683.0405528081 -89.9999991706777 0.000103712659498088 48.6698936596408 0.000103659551763238 48.6765835926483 71.8482239833331 -89.1082396088065 
0.11             34526.6452908211 -90.1658003672258 0.000151290928263932 46.1486389543065 0.000164870634486599 40.9615997794503 63.4222496612938 -89.0684823924741 
0.12             31635.3439012893 -90.0594855629502 0.000191221820266988 46.7791899175868 0.000216414663723037 39.7216968599427 56.201872522422  -89.021252487673 
0.13             29172.6286204523 -90.0255635531032 0.000226514200677853 48.3244804928292 0.000260876714272039 40.3667478151667 49.8998582031737 -88.9647663580204 
0.14             27065.2121091861 -90.0120994440913 0.000259059603951882 50.2894132085623 0.000300369606515486 41.9195366641571 44.3099629559462 -88.8958843785167 
0.15             25242.6417602476 -90.0059973487571 0.000290219390231093 52.4790420805948 0.000336358363718961 44.0485584052044 39.2798085262229 -88.809696818881 
0.16             23650.8859982301 -90.0030163032818 0.00032106065369554 54.8117803740581 0.000369817306387738 46.6375570737578 34.6939001911651 -88.698766989951 
0.17             22248.6288595864 -90.0014986685848 0.000352478687988852 57.2623547573379 0.000401324605216805 49.6701357265585 30.4626083004429 -88.5517956110167 
0.18             21003.8480190241 -90.0007125579477 0.000385273997031088 59.8443124393946 0.00043109499936321 53.1972465539809 26.5147935649209 -88.3512119093619 
0.19             19891.3593976444 -90.0003070695777 0.000420197112052259 62.6102731854971 0.000458947569800575 57.3384680787483 22.7927399707227 -88.0686115634178 
0.2              18891.0866177565 -90.0001040109136 0.000457959941356232 65.6666733592119 0.000484199841131332 62.3100514405265 19.2486130450813 -87.6554911030217 
0.21             17986.8277941073 -90.0000091825959 0.000499194677067303 69.2105673110317 0.000505481068237429 68.4943069198544 15.8420161417095 -87.0225733699868 
0.22             17165.362710671  -89.9999714327986 0.000544308444726169 73.6140638183985 0.000520525408304954 76.5987503069068 12.5385598288352 -85.9873639828968 
0.23             16415.7960778432 -89.9999625625835 0.000593123954511492 79.633648753937  0.000526445361562596 88.0411635168008 9.31013226743159 -84.1143016885043 
0.24             15729.067206275  -89.9999669790376 0.00064423047197718 89.0099895086135 0.000523528870714558 105.914987973329 6.14136544407591 -80.0654097198712 
0.25             15097.5788902099 -89.9999761611437 0.000696205170557096 106.562382403902 0.00053939994774839 136.673186967738 3.08444778540353 -67.1425414180208 
0.26             14514.9129829232 -89.9999856090308 0.000791937981683072 148.538971807746 0.000724794146949494 -175.20931697713 1.43297168061904 15.820724985454  
0.27             13975.6099027574 -89.9999931222387 0.00140625610894866 -115.019484668942 0.00140350315898384 -122.846605566585 4.01907254359077 66.3504922226094 
0.28             13474.9958943957 -89.9999978094941 0.00191792417260112 -28.1843619566984 0.00251803123998512 -70.9032252881059 7.31971697401982 74.8453846825114 
0.29             13009.0463858532 -89.999999513174 0.00205522817826458 3.99719531324895 0.00310045198010327 -28.3247702301123 10.8281863337889 77.7196564367829 
0.3              12574.2769311105 -89.9999984739319 0.00234143130747567 16.9146934209033 0.00325243090518419 -2.7975835960636 14.5456392273855 78.8643626523634 
0.31             12167.6554442228 -89.9999951308582 0.00280282416592138 22.842472237611  0.00342607968510523 12.284640447774  18.5194579796738 79.1942482272611 
0.32             11786.5310248042 -89.9999900086244 0.00348622894881371 25.2746793544589 0.00372844354866411 22.021244410876  22.8176067164919 79.0122574270372 
0.33             11428.5758240952 -89.9999836530672 0.00448894203458551 25.3720946696121 0.00419150717734298 28.7155596847414 27.5282062381992 78.4237659936328 
0.34             11091.7372441497 -89.9999765968996 0.00597987258248018 23.4164571821414 0.00485799905224974 33.374435639637  32.7640684867592 77.4454110552082 
0.35             10774.1983872676 -89.999969343825 0.00823959801284599 19.1817747130308 0.00580370155458707 36.4039189029916 38.6693395736034 76.0378986245343 
0.36             10474.3451395119 -89.9999623639661 0.0117070703425251 12.0036535757498 0.00716031885640557 37.8704210377674 45.4265661609929 74.112327581372  
0.37             10190.7386243875 -89.9999560966198 0.0169421672322237 0.830330763906774 0.00915958329519891 37.5771012221231 53.2599168386055 71.5233580936251 
0.38             9922.09203083487 -89.9999509589626 0.0241944245854214 -15.3061304258659 0.0122272272653654 35.0310227607297 62.4221646738025 68.0536040749174 
0.39             9667.25102501715 -89.999947361384 0.0324159263711975 -35.8519373340753 0.0171972719876354 29.2782899688344 73.132468776199  63.3942189500346 
0.4              9425.17711412559 -89.9999457258371 0.0395286286837652 -57.846507565895 0.0258316690679167 18.4308438314315 85.3888609401317 57.1387545167205 
0.41             9194.93345567391 -89.9999465053402 0.0448045089598695 -78.536630851333 0.0419182157310833 -1.80326422247387 98.5303154887461 48.8428288595612 
0.42             8975.67269644641 -89.9999501941396 0.0487263347809391 -97.5579761955672 0.0680978711680038 -41.6446652141923 110.551881857069 38.2590032913535 
0.43             8766.6265382342  -89.9999571367092 0.0511920921828222 -115.389836790423 0.0705087120898115 -101.14109007722 117.958587537472 25.805329007299  
0.44             8567.09675692128 -89.9999680893992 0.0516783728046797 -131.670525106674 0.0470605326638854 -145.53784877448 117.756250288337 12.8764630462847 
0.45             8376.4472739093  -89.999984022498 0.0504360694791692 -145.379284586189 0.0309597079045334 -175.463801361964 110.403834225107 1.26156439047147 
0.46             8194.09744490451 -90.0000059370119 0.0485547437793256 -155.912300781081 0.0218105886814101 160.413697162435 99.2611505384657 -7.91734900765887 
0.47             8019.51612676945 -90.0000351940892 0.0470812326885382 -163.439991847919 0.0168060195289597 138.827135104735 87.5111644089553 -14.483938172867 
0.48             7852.2164844171  -90.0000736288986 0.0466226776922078 -168.530000871795 0.0144110806357809 119.041503878609 76.8043275991509 -18.7699227099851 
0.49             7691.75143897967 -90.0001237252922 0.0475020051439428 -171.775621579958 0.0137801721529824 101.625112945996 67.6493830398154 -21.2066452992552 
0.5              7537.70966070138 -90.0001888791756 0.0500030031118313 -173.648604366479 0.0144482137454085 87.203456451202  60.0357289418665 -22.1588037832302 
0.51             7389.71203071702 -90.0002737832218 0.0545699988029719 -174.478048394795 0.0162363100891526 75.691349415733  53.7882082013144 -21.8981237399017 
0.52             7247.40850905924 -90.0003849875731 0.0620370698321665 -174.461912669261 0.019245618514908 66.4007976850373 48.7132553644038 -20.6240761912707 
0.53             7110.47535786805 -90.0005317181184 0.0740715458576606 -173.66411347965 0.0239252169788754 58.3558152302083 44.6459916404997 -18.493339239743 
0.54             6978.61268075906 -90.0007270691865 0.0943319872569263 -171.952192988927 0.0313033333187238 50.3196444125594 41.4583322759283 -15.6465235238639 
0.55             6851.54225404384 -90.0009897378292 0.132299190584518 -168.727825713943 0.0435782624219191 40.3461885077777 39.0535348825188 -12.2287163839085 
0.56             6729.00564864765 -90.0013465998765 0.220977198670902 -161.568775228379 0.0649647439943168 24.3647742199614 37.356967416092  -8.40154688685897 
0.57             6610.7627745576  -90.001836831092 0.548464654092657 -133.386344967942 0.0948248937678227 -5.67189563587292 36.3069184914301 -4.34471501288043 
0.58             6496.58990577098 -90.0025027270919 0.504265614730466 -35.7675238713546 0.0966814709726264 -45.8928820017168 35.8471895184202 -0.246805863620767 
0.59             6386.27931175616 -90.0034262102229 0.2319187037905  -12.6753217904749 0.0736127353566366 -71.5399766727458 35.9223419070769 3.71105738128739 
0.6              6279.63982473674 -90.0046880521011 0.153570170612009 -6.25967963413444 0.0568841564662475 -83.8389207489588 36.475644365075  7.37266822632642 
0.61             6176.49397708881 -90.0063839993483 0.119478850897358 -3.29804513628633 0.047065238350516 -90.0250622505923 37.4489842838663 10.61880485971   
0.62             6076.67724133075 -90.0085988716621 0.10179499113983 -1.71898411974658 0.0412135298935928 -93.2551108705263 38.783751049014  13.3712130971481 
0.63             5980.03294510271 -90.0113764782236 0.0922406383453613 -0.969279873149429 0.0376952625251976 -94.8012431769423 40.4216790774508 15.5893925437098 
0.64             5886.4027942626  -90.0146895994384 0.0876817387240088 -0.896531083207108 0.0356997191445521 -95.1918252720477 42.3051747848788 17.2633562016727 
0.65             5795.6141595387  -90.0184028237916 0.0869016785306737 -1.52126383255449 0.0348364543020549 -94.5918469634354 44.3771220153932 18.40553230321   
0.66             5707.47132591266 -90.0221360281632 0.0897027778883155 -3.00193495583947 0.0349592791340461 -92.9003892177897 46.5804865648773 19.0437971284736 
0.67             5621.77552655225 -90.0248555916624 0.0967813122828568 -5.7003506287747 0.0361103174213729 -89.6873740471888 48.8581648060742 19.2163384767436 
0.68             5538.43292475    -90.0245282796756 0.110150750647498 -10.4121163976967 0.0385240050441229 -83.9072103227127 51.1534859884374 18.9681754270049 
0.69             5457.59540455398 -90.0197893601269 0.134312049673762 -19.072618947429 0.0425149036061695 -73.068698770675 53.411624665702  18.3487472079621 
0.7              5379.43419423836 -90.0128915977025 0.176093805459655 -36.918779195075 0.0467364122024752 -51.3192681956049 55.5819331736361 17.4098914113675 
0.71             5303.77965607033 -90.0072313909816 0.209055150257384 -73.7563371549352 0.040370668074511 -12.4497750972274 57.6208874984913 16.2036157058908 
0.72             5230.32523343488 -90.0037360082829 0.151484698388169 -114.385577465484 0.020844507781514 28.8015892559681 59.4949946988273 14.7792342497524 
0.73             5158.8671470729  -90.0018174849163 0.0904726969708046 -135.534087455096 0.0079391291258404 72.977510698382  61.1826634685774 13.1796461997363 
0.74             5089.29342726433 -90.0008030806187 0.056872816952146 -145.646729835124 0.00553472311845106 149.723200237372 62.6736799577312 11.4368014719589 
0.75             5021.52944686199 -90.0002710645198 0.0377361180995505 -151.059693756932 0.00835390864342 -174.401871674991 63.9645221751024 9.56689560043247 
0.76             4955.51202132598 -89.9999934116866 0.0257712564032424 -154.010112904205 0.0109551538623245 -162.289334472205 65.0473050142937 7.56704230004623 
0.77             4891.18129559422 -89.9998509505469 0.0176978271475618 -155.181921986237 0.0129912465118401 -156.829899628582 65.890795437387  5.41786251913233 
0.78             4828.47889500664 -89.9997810970999 0.0119348412618057 -154.415248547539 0.0146272940122234 -154.095861591379 66.4173555790665 3.10049484290209 
0.79             4767.34781510598 -89.9997503956425 0.00767378986516614 -150.437122245729 0.0159828737487715 -152.758786643585 66.4956407014993 0.636346804410986 
0.8              4707.73265940369 -89.9997405910812 0.00454598388914013 -139.014913491365 0.0171244845239651 -152.173111640429 65.9874991764061 -1.86232738598526 
0.81             4649.57986007651 -89.9997415323459 0.00266981963057946 -107.710309758047 0.0181015766785921 -151.910507228882 64.8587616550394 -4.18564346449214 
0.82             4592.8378139857  -89.9997474879794 0.00269177518992949 -60.2973656987442 0.0189779375025722 -151.666794254882 63.259432237433  -6.11371701657925 
0.83             4537.45694222318 -89.9997551883241 0.00386271910672041 -36.0141826307189 0.0198345603877528 -151.276018736622 61.4583568993132 -7.53764351732567 
0.84             4483.38969450909 -89.9997627603327 0.00518926953085529 -26.0913857792347 0.020750448301092 -150.69354191171 59.6942540350662 -8.49090294920682 
0.85             4430.59051720331 -89.9997691350376 0.00646256999587709 -21.2178782720001 0.0217896397988377 -149.933766343232 58.0955254455438 -9.08449945279753 
0.86             4379.0157986146  -89.9997737113259 0.00767534717707886 -18.4308712850264 0.0230043803563796 -149.015483997611 56.6957070074541 -9.43395867355647 
0.87             4328.62380093965 -89.9997761618631 0.00885579734896238 -16.6698045092122 0.024445756346082 -147.937702466337 55.4796198362271 -9.62612141187079 
0.88             4279.37458501397 -89.9997763194561 0.0100382185086978 -15.4823979464665 0.0261745137042735 -146.674497385713 54.4170489017248 -9.71676504141481 
0.89             4231.22993190806 -89.9997741097949 0.011258859416199 -14.6475633740695 0.0282712451855694 -145.174166189459 53.4784569952139 -9.73904590534201 
0.9              4184.15326397074 -89.9997695113471 0.0125573439308786 -14.0462678607628 0.0308481805961805 -143.35493378602 52.6398855743649 -9.71216256758162 
0.91             4138.10956697558 -89.9997625313671 0.0139799966516217 -13.6105829172638 0.0340656471788604 -141.093262476436 51.8832548444986 -9.647404993471  
0.92             4093.06531440417 -89.9997531915687 0.0155848545388767 -13.3012552387738 0.0381565611919222 -138.200254384753 51.1952492209594 -9.55178614697874 
0.93             4048.98839449196 -89.999741519529 0.0174494100864661 -13.0972045854923 0.0434609701196236 -134.377619371747 50.5660492126949 -9.43005961412632 
0.94             4005.84804039879 -89.9997275432073 0.0196834272810739 -12.9908855789989 0.0504610118879321 -129.137469829746 49.9882918982521 -9.28578896131475 
0.95             3963.61476368626 -89.999711285939 0.0224517138063401 -12.9874228530275 0.0597458407297605 -121.665611814589 49.4563118658511 -9.12189485202943 
0.96             3922.2602910444  -89.9996927573325 0.0260177468514099 -13.1075715511404 0.0715827163210989 -110.657194139448 48.9656153596066 -8.94092564357755 
0.97             3881.75750336808 -89.9996719353122 0.0308349453355632 -13.3970342396142 0.0841263284277987 -94.5111262399379 48.5125250972727 -8.74518601333634 
0.98             3842.08037532134 -89.9996487750388 0.0377601841390798 -13.9505743978285 0.0904739770116754 -73.2175122365086 48.0939429912304 -8.53679514871974 
0.99             3803.20392239786 -89.9996233221889 0.0486349500937668 -14.9797255437429 0.0840959436835764 -51.214656505591 47.7071922114574 -8.31771172952179 
1                3765.10416237999 -89.9995956738739 0.0682607534318196 -17.0465099495971 0.0702443806361751 -33.7656410178839 47.3499119533082 -8.08974395235237 
