! Touchstone file from project FYP_Sim_Actual_All_Ports
! Exported from HFSS 13.0.2
# GHZ Z MA R 50.000000
! Terminal data exported
! Port[1] = PD1_Void_Port_T1
! Port[2] = Radiating_Plate_T1
0                649954.8422367   -90.014981479815 0.000826038989092826 -17.3188568502434 0.000826052284539488 -17.3177446497609 1232.98593624695 -89.1520032237399 
0.01             433037.228927499 -89.9999998897324 0.000313759258876161 -31.9126621977458 0.000313770003670653 -31.9112281990609 821.267561600376 -89.2457376213708 
0.02             216549.532249162 -89.9650457634711 0.00015628760036319 -148.281484415395 0.000156288232549863 -148.275292277997 410.108619245739 -89.2932075563224 
0.03             144416.515100481 -89.935390441745 0.00022914971854443 -167.087633714359 0.000229152654879129 -167.080587394685 272.674996255656 -89.2250554595402 
0.04             108398.674639279 -89.9150593178203 0.000280803363340827 -173.399680229919 0.000280812704895655 -173.391016961153 203.556232967564 -89.1783189400324 
0.05             86819.7072508244 -89.95267114477  0.000341289490617733 -177.581088485299 0.000341310503984541 -177.570633600859 161.666390584944 -89.1723197769724 
0.06             72327.5910331057 -90.0373994564901 0.000436530268249321 178.321407753022 0.000436575065910259 178.333842461882 133.324351397834 -89.197047344464 
0.07             61930.0759448492 -90.0523797272136 0.000631311481737359 172.398962087676 0.00063142207186202 172.413782694094 112.68574851366  -89.2295750986769 
0.08             54156.2974806076 -90.0358528041323 0.00123513423301136 155.910910384011 0.00123561270280481 155.927240131422 96.8459514435524 -89.240822712505 
0.09             48124.4535674305 -90.0168164917105 0.0019980997439934 63.9716909306139 0.00199856789395147 63.949540797807  84.2051112666726 -89.1989630276233 
0.1              43304.9438128451 -89.9999982763322 0.000693615557432584 24.0103880804157 0.000693615678673819 24.010388502538  73.8133141681001 -89.0708438873812 
0.11             39373.2399192724 -89.9945145581864 0.00262338679847866 25.6749751195074 0.00442971240922492 -2.36492833257715 70.7732893858982 -84.2842848050072 
0.12             36096.1912042127 -89.990678568228 0.00441760632815291 27.9469817243802 0.00765053204737237 -2.85083705753215 68.1451809261773 -79.9593824502387 
0.13             33322.7882047216 -89.9880365565234 0.00609994938797156 29.8696790056932 0.0103897038128397 -2.25233355536158 65.8670506051039 -76.0382680560167 
0.14             30945.1662915513 -89.9862651112832 0.00768805471910724 31.4449826092351 0.0127369655894548 -1.47092570223041 63.8845826674521 -72.4721265864576 
0.15             28884.2206331496 -89.9851316288057 0.00919530630530172 32.7196371478659 0.0147648021728542 -0.677653818114768 62.1512456218303 -69.2195493862218 
0.16             27080.6174159607 -89.9844674742794 0.0106320700593774 33.7400114885086 0.0165310952528239 0.0846987894584241 60.627675572146  -66.2451872492349 
0.17             25488.9785640636 -89.9841494874534 0.0120065181880224 34.5462006961633 0.0180822249798407 0.807385341449802 59.2807778816362 -63.5186714634354 
0.18             24074.0053704289 -89.9840871005399 0.0133251954580857 35.1718360684677 0.0194555543454953 1.49219096627859 58.0827884869084 -61.0137538326604 
0.19             22807.826454113  -89.9842132852506 0.0145934184907794 35.644946579375  0.0206813538267165 2.1441128586697  57.0104024502032 -58.707618820103 
0.2              21668.1413966892 -89.9844781397275 0.015815563288548 35.9889219865714 0.0217842885059873 2.76882646666911 56.0440096339176 -56.5803288124134 
0.21             20636.8947650595 -89.9848443109819 0.0169952757583272 36.2233635068473 0.0227845703347665 3.37179533134784 55.1670446154816 -54.6143718881689 
0.22             19699.3117309792 -89.9852837033778 0.0181356279120363 36.3647883194191 0.0236988545504783 3.95799556855798 54.3654432953054 -52.7942886387915 
0.23             18843.1852246955 -89.9857750947652 0.0192392350064606 36.4272009464377 0.0245409401590654 4.53187816640276 53.6271931275053 -51.1063601844071 
0.24             18058.3412566122 -89.9863023977987 0.020308344177341 36.4225544528174 0.0253223198754614 5.09742110870112 52.941962824302  -49.5383437053316 
0.25             17336.2325222993 -89.9868533831482 0.0213449020548174 36.3611237016505 0.0260526140032216 5.65821117903239 52.3007983263898 -48.0792448560587 
0.26             16669.6257570649 -89.9874187356509 0.0223506068089609 36.2518095074713 0.0267399145512924 6.21753115704156 51.6958735730139 -46.7191186177477 
0.27             16052.3585390299 -89.9879913521931 0.02332694870589 36.1023889020309 0.0273910597520598 6.77844331254995 51.120286559173  -45.4488917017705 
0.28             15479.1481826933 -89.9885658161727 0.0242752423402157 35.9197235687584 0.028011854554207 7.34386662290503 50.5678930744907 -44.260200712479 
0.29             14945.4401530216 -89.989138001893 0.0251966531155269 35.7099359333365 0.0286072492418693 7.91664787370615 50.0331722890167 -43.1452410416498 
0.3              14447.286781642  -89.989704775131 0.0260922201896217 35.4785603533955 0.0291814858020091 8.49962783925955 49.511119980452  -42.0966220021354 
0.31             13981.2494452305 -89.9902637653131 0.0269628779354018 35.2306752119388 0.0297382198223274 9.09570398805742 48.9971667207727 -41.1072241038442 
0.32             13544.3190757688 -89.9908131913759 0.0278094779616392 34.9710203598566 0.0302806244041543 9.70789101226612 48.4871198106919 -40.1700547245347 
0.33             13133.8511157281 -89.991351728035 0.0286328138707681 34.7041031469892 0.0308114817091218 10.3393800874257 47.9771292230525 -39.2780988458836 
0.34             12747.5119455348 -89.9918784026972 0.0294336511864079 34.4342951008206 0.0313332672402661 10.9935971533788 47.4636793359985 -38.4241621703532 
0.35             12383.2344899085 -89.992392515677 0.0302127652369417 34.16592002253   0.0318482317132524 11.6742596230958 46.9436098218664 -37.6007050362305 
0.36             12039.1812191268 -89.9928935782476 0.0309709901876245 33.903332725227  0.0323584853210875 12.385429678629  46.4141706740109 -36.799667441261 
0.37             11713.7131468443 -89.9933812644214 0.0317092827865174 33.6509856838167 0.0328660892273899 13.131560580739  45.8731178735224 -36.0122886444751 
0.38             11405.3637203709 -89.9938553732812 0.0324288045763735 33.4134783536317 0.0333731590742032 13.9175300753373 45.3188573370394 -35.228929882868 
0.39             11112.8167257012 -89.9943157995304 0.0331310260728266 33.1955807519425 0.0338819849043848 14.7486519457348 44.7506450173052 -34.438916511319 
0.4              10834.8875050577 -89.9947625104299 0.0338178553325556 33.0022191309747 0.0343951707919223 15.6306530921683 44.1688494693991 -33.6304271939547 
0.41             10570.5069216695 -89.9951955276796 0.0344917908958823 32.8384075440334 0.03491579511132 16.5695995660555 43.5752785164311 -32.790473223767 
0.42             10318.7076141382 -89.9956149132278 0.0351560946306942 32.7091056754242 0.0354475880968418 17.5717516073193 42.9735620518772 -31.90503027331  
0.43             10078.6121678453 -89.9960207581219 0.0358149728975073 32.6189821114326 0.0359951164794997 18.64332657233   42.3695664607528 -30.9594053858535 
0.44             9849.42289856295 -89.9964131737873 0.0364737444221074 32.5720658915249 0.0365639551843006 19.7901523159887 41.7717910537922 -29.9389373316408 
0.45             9630.41299759963 -89.9967922851818 0.0371389609572781 32.5712811512402 0.0371608138190212 21.017205558689  41.1916636863522 -28.8301260740472 
0.46             9420.91883138655 -89.997158225469 0.0378184346013567 32.6178833394646 0.0377935731072999 22.328053413984  40.6436162079486 -27.6222476692657 
0.47             9220.33322364606 -89.9975111318808 0.0385211182593107 32.7108520780689 0.0384711779559469 23.7242527878633 40.1447927288025 -26.3094119099959 
0.48             9028.09957691354 -89.9978511425113 0.039256790167468 32.8463409711939 0.0392033362442164 25.2048075211593 39.7142458222094 -24.8928482170979 
0.49             8843.70671355846 -89.998178393871 0.0400355169790927 33.0173256077328 0.0399999930232999 26.7658239700131 39.3715335406804 -23.3829802637804 
0.5              8666.68433561867 -89.9984930190285 0.0408669160245771 33.2136059117049 0.0408705925300763 28.4005204763405 39.1347610711259 -21.8006492766896 
0.51             8496.59901854942 -89.9987951462215 0.0417592999527503 33.4222843069602 0.0418232002901982 30.0997112882029 39.0183025755396 -20.1768055156869 
0.52             8333.05066704377 -89.9990848978542 0.0427188473144401 33.6287461556929 0.042863617331313 31.8527902202295 39.0306312302667 -18.5502403233396 
0.53             8175.66937192176 -89.99936238977  0.0437489734653265 33.8180313936154 0.0439946519069446 33.6491014761449 39.1727807822403 -16.963490579847 
0.54             8024.1126161185  -89.9996277307814 0.0448500545648931 33.9763552338    0.0452156981093655 35.4794535958546 39.4378754178047 -15.4577169739492 
0.55             7878.06278535823 -89.9998810223669 0.0460195808966161 34.0924711966009 0.0465227010729584 37.3374673835083 39.8118932933657 -14.0677940011491 
0.56             7737.22494544335 -90.0001223585227 0.0472527088178258 34.1586070647403 0.0479084871177347 39.2204854420693 40.2754771734922 -12.818790399418 
0.57             7601.32485342873 -90.0003518257181 0.0485430846315563 34.1708299048682 0.0493633433662078 41.1298958423677 40.8063304393754 -11.7244907923521 
0.58             7470.10717446434 -90.0005695029426 0.0498837641675876 34.1288541344595 0.050875680428496 43.0708796194708 41.3816488086246 -10.7879112373614 
0.59             7343.33387991375 -90.0007754618149 0.0512680604427009 34.0354329348353 0.0524326169156046 45.0517174707626 41.9801402961278 -10.0032346282008 
0.6              7220.78280560745 -90.0009697667419 0.052690203895407 33.8955307340229 0.0540203738355939 47.0828479544759 42.5833935986526 -9.35840366416455 
0.61             7102.24635186107 -90.001152475115 0.0541457674697372 33.7154634887741 0.0556244346566339 49.1758583042967 43.1765644078961 -8.83771373304661 
0.62             6987.53030925839 -90.0013236375275 0.0556318671780431 33.502140166678  0.0572294889382438 51.3425360070455 43.7484930318216 -8.42399318667252 
0.63             6876.45279622992 -90.0014832980118 0.0571471847319741 33.2624742887328 0.0588192207860786 53.5940459705516 44.2914289097109 -8.10020460321141 
0.64             6768.84329620324 -90.0016314942882 0.0586918716904033 33.0029804697271 0.0603760262265798 55.9402466366651 44.8005362902689 -7.85047527103631 
0.65             6664.54178360545 -90.0017682580117 0.0602673908113387 32.7295363987942 0.0618807507833614 58.389127954678  45.2733196058652 -7.66065650287564 
0.66             6563.39792929676 -90.0018936150263 0.0618763380652156 32.4472747717013 0.0633125360686875 60.9463441357505 45.7090614384249 -7.51853924868733 
0.67             6465.27037713883 -90.0020075856097 0.0635222745424995 32.1605669921411 0.064648855755341 63.6148192458483 46.1083250648572 -7.41384450523147 
0.68             6370.02608437726 -90.0021101847174 0.0652095850448174 31.873065136293  0.0658658071957855 66.3944176356693 46.4725432447599 -7.33808252956061 
0.69             6277.53971936606 -90.002201422219 0.0669433709618751 31.5877762194834 0.066938703011522 69.2816882931829 46.8036955253688 -7.28434786507102 
0.7              6187.69311090135 -90.0022813031322 0.0687293791456704 31.3071504733814 0.0678429743954009 72.2697077352977 47.1040657425584 -7.24709388994964 
0.71             6100.3747440776  -90.0023498278476 0.0705739652770117 31.0331718269357 0.068555353716745 75.3480560879496 47.37606686543   -7.22191293772374 
0.72             6015.47929814461 -90.0024069923574 0.0724840888972986 30.7674436938645 0.0690552515317065 78.5029623611831 47.6221194878872 -7.20533579024367 
0.73             5932.90722233924 -90.0024527884879 0.0744673371652  30.5112665967755 0.0693261909543237 81.7176456813605 47.8445713767464 -7.19465644481925 
0.74             5852.5643461008  -90.0024872041229 0.076531974986706 30.2657063886128 0.0693571237748326 84.9728595538849 48.0456474191314 -7.18778331847759 
0.75             5774.36152046246 -90.002510223441 0.0786870201291121 30.0316531843465 0.0691434419150337 88.2476190310998 48.2274214204913 -7.18311544918048 
0.76             5698.21428774813 -90.0025218271459 0.0809423430785261 29.809871867899  0.0686875243067975 91.5200615940874 48.39180315557   -7.17944101030596 
0.77             5624.04257700272 -90.0025219926934 0.0833087926531936 29.6010454067904 0.0679987225763818 94.7683687539163 48.5405357301921 -7.17585502736993 
0.78             5551.77042284682 -90.0025106945151 0.0857983497285215 29.4058123451648 0.0670927764943737 97.9716632802391 48.6751996425653 -7.17169321574502 
0.79             5481.3257056807  -90.0024879042178 0.0884243129000721 29.2247998608273 0.0659907406502854 101.11080004361  48.7972209633566 -7.16647911908854 
0.8              5412.63991136976 -90.0024535907757 0.0912015215807559 29.0586537335658 0.0647175745250664 104.168985907948 48.9078818299517 -7.1598820848814 
0.81             5345.6479087276  -90.0024077207017 0.0941466240044108 28.9080665259156 0.0633005832701032 107.132191208341 49.0083320221541 -7.15168398917492 
0.82             5280.28774327765 -90.0023502581981 0.0972784000343466 28.7738052536002 0.0617678921557174 109.98934528857  49.099600800158  -7.14175297717767 
0.83             5216.50044592026 -90.0022811652945 0.100618151746265 28.6567398428673 0.0601471014683238 112.732334845845 49.1826084797673 -7.1300228014082 
0.84             5154.22985526322 -90.0022004019741 0.104190178734021 28.5578737545219 0.0584642151130768 115.35584209576  49.258177425614  -7.11647660899708 
0.85             5093.42245249085 -90.0021079262846 0.108022360338831 28.4783783197786 0.0567428805865967 117.85706856428  49.3270422846032 -7.10113425524212 
0.86             5034.02720775099 -90.0020036944493 0.112146874041406 28.4196326069909 0.0550039317140403 120.235390644583 49.3898593771216 -7.08404240582425 
0.87             4975.99543713384 -90.0018876609727 0.11660108881707 28.3832710575952 0.0532651942335024 122.491987378617 49.4472152261366 -7.06526684054033 
0.88             4919.2806694     -90.0017597787374 0.121428685403943 28.3712417481654 0.0515414984194585 124.629472048944 49.499634244006  -7.04488649251172 
0.89             4863.83852169164 -90.0016199991074 0.126681073747847 28.3858790344646 0.0498448396183309 126.651549496851 49.5475856206953 -7.02298885370926 
0.9              4809.62658352787 -90.0014682720263 0.13241920371943 28.429995636441  0.0481846326716438 128.562712254183 49.5914894702228 -6.99966645479549 
0.91             4756.60430844775 -90.0013045461137 0.138715902125262 28.5070011207238 0.0465680157347136 130.367981444074 49.6317222980972 -6.97501418854617 
0.92             4704.73291271892 -90.0011287687633 0.145658922571801 28.6210565275878 0.0450001698870731 132.072693213813 49.6686218537821 -6.949127294646  
0.93             4653.97528058042 -90.0009408862426 0.153354973541848 28.7772790469526 0.0434846312033142 133.682328068252 49.7024914305651 -6.9220998620464 
0.94             4604.29587553324 -90.0007408437908 0.161935107917481 28.9820169415911 0.0420235805950877 135.20237854215  49.7336036717944 -6.89402373541861 
0.95             4555.66065723316 -90.0005285857217 0.171562036586217 29.2432246172654 0.0406181034164918 136.638249802265 49.7622039380972 -6.86498773620874 
0.96             4508.03700357785 -90.0003040555315 0.182440206925276 29.5709830015196 0.0392684156298795 137.99518765382  49.7885132854339 -6.83507712773684 
0.97             4461.39363761365 -90.0000671960162 0.194829926856436 29.978234949049  0.0379740565442325 139.278228756899 49.8127310990108 -6.80437326874009 
0.98             4415.7005589186  -89.999817949401 0.209067525598693 30.481845895496  0.0367340501142243 140.492168426534 49.8350374234027 -6.77295341157831 
0.99             4370.92897914637 -89.999556257491 0.225594715044829 31.1041686416767 0.0355470378597734 141.641542052337 49.8555950248296 -6.74089061066045 
1                4327.05126144173 -89.9992820618558 0.245002295453488 31.8754110873272 0.0344113869158959 142.730616839179 49.8745512174859 -6.70825371403536 
1.01             4284.14212300317 -89.9993407116641 0.230710484286377 20.9555567437275 0.0359899845820323 143.101622024109 49.8941011433471 -6.93166153508958 
1.02             4242.07369520072 -89.9993962734271 0.211076790312522 11.3770678615087 0.0377569544680859 143.486002661538 49.9158958602523 -7.16717141222664 
1.03             4200.82149214173 -89.9994487995648 0.189926659514099 3.35772669415609 0.0397465036260908 143.887477938324 49.9402346837123 -7.41581194387245 
1.04             4160.36196846987 -89.9994983300247 0.169735176160557 -3.19683413203604 0.0420016903878921 144.310794297061 49.9674652417355 -7.67872911652443 
1.05             4120.67247554074 -89.9995448908049 0.151618470216099 -8.51381319076397 0.0445774678448361 144.762093465461 49.99799288565   -7.95720323299546 
1.06             4081.73121956296 -89.9995884990399 0.135848334029617 -12.8378333843919 0.0475450695249365 145.249446667491 50.0322922462855 -8.25266880376571 
1.07             4043.51722172009 -89.9996291674616 0.122296289807975 -16.3826821980483 0.0509984783715928 145.783648447352 50.0709215166066 -8.56673798715996 
1.08             4006.01028038196 -89.9996669068779 0.110689700369209 -19.3201193834798 0.0550642243527458 146.379428239568 50.1145402231743 -8.90122831400219 
1.09             3969.19093538175 -89.9997017273314 0.100732656903414 -21.7834106165096 0.059916678422989 147.057357338843 50.1639314872177 -9.25819561013245 
1.1              3933.04043425643 -89.9997336386632 0.092154237841421 -23.8747974730892 0.0658027707747122 147.846959800704 50.2200301032952 -9.63997324842411 
1.11             3897.54070032648 -89.9997626509314 0.0847229605185462 -25.672807841324 0.0730835858957457 148.792005481906 50.2839582161087 -10.0492191356203 
1.12             3862.67430249343 -89.9997887750137 0.0782471435384344 -27.2382459827854 0.0823077425437216 149.959978463927 50.3570710063223 -10.4889721838334 
1.13             3828.42442664299 -89.999812023768 0.0725702433999324 -28.6187819778843 0.094348251750739 151.460069908621 50.4410156824047 -10.9627204495399 
1.14             3794.77484855634 -89.9998324145533 0.067565031551152 -29.8523783453308 0.110675040333142 153.479996197641 50.5378083353207 -11.474483664765 
1.15             3761.70990827214 -89.9998499751757 0.0631281111098058 -30.9698344291555 0.133940137217873 156.368579422071 50.6499350260012 -12.0289135582668 
1.16             3729.21448603268 -89.9998647593123 0.0591752485011049 -31.9966891018772 0.16933591789108 160.843312690911 50.7804861216138 -12.6314161908359 
1.17             3697.27398111547 -89.9998768889067 0.0556375795221197 -32.9546683468475 0.227844115806435 168.586439234112 50.9333368314386 -13.2883015217616 
1.18             3665.87430280596 -89.9998866296258 0.0524585999573802 -33.8628177062835 0.33096100516426 -175.886579569363 51.1133929593519 -14.006966478066 
1.19             3635.0018971519  -89.999893597485 0.0495918136342156 -34.738424036411 0.461934093854431 -142.441337115462 51.32693003113   -14.7961171060769 
1.2              3604.64348998689 -89.9998949362733 0.0469989132066851 -35.5978082298495 0.403752192791195 -99.602093852005 51.5820583626342 -15.6660390389559 
1.21             3574.78619302736 -89.9998937830158 0.0446484051603279 -36.4570682134915 0.270617034917038 -76.0566640576213 51.8893973362044 -16.6289445960903 
1.22             3545.41782165661 -89.9998907277272 0.0425146062534823 -37.3328066828861 0.191038147565503 -65.2866809517115 52.2630480572179 -17.6993501759501 
1.23             3516.52646726115 -89.9998850839463 0.0405769602565599 -38.2429330043629 0.145126801584294 -59.7324528115746 52.7219987883999 -18.8945402846828 
1.24             3488.10058418512 -89.9998766546912 0.0388196880525472 -39.207600993604 0.116301956582898 -56.5936946621986 53.2922499729936 -20.235079117326 
1.25             3460.12899803009 -89.9998653861315 0.0372318077746394 -40.2503649180887 0.0968146340069272 -54.7766438429101 54.0100641523158 -21.7453134987841 
1.26             3432.60089077313 -89.9998512604804 0.035807646317147 -41.3996594312691 0.0828974067042564 -53.7982793832504 54.9270660563998 -23.4537379421424 
1.27             3405.50578593492 -89.999834270259 0.0345480970176034 -42.6907184199095 0.0725630719729951 -53.4299641557261 56.1184721843134 -25.3929176925663 
1.28             3378.83353483537 -89.999814411193 0.0334631362014295 -44.1680175929385 0.0646907014834369 -53.5668669602765 57.6967929080292 -27.5983091266624 
1.29             3352.57430370018 -89.9997916799617 0.0325766432256387 -45.8881408590732 0.0586234222969978 -54.1747904630845 59.8354814881221 -30.1045685505814 
1.3              3326.71856145903 -89.9997660734094 0.0319357328235134 -47.9222827463229 0.0539834692044873 -55.2664860238841 62.8114989297571 -32.9363574039868 
1.31             3301.25706814909 -89.9997375882642 0.0316295151701221 -50.3553238766064 0.0505940861466258 -56.8874240909677 67.0858386325925 -36.0872339227864 
1.32             3276.18086387279 -89.9997062210339 0.0318288992838868 -53.2711108186856 0.0484735700969728 -59.0938381369998 73.4653094197795 -39.4724995166046 
1.33             3251.48125827901 -89.9996719679335 0.0328766806858019 -56.6900375970129 0.0479151186009553 -61.8861433807679 83.4519514893588 -42.8227249797539 
1.34             3227.14982056054 -89.9996348245181 0.0355051267210798 -60.3481148009765 0.0497352375870043 -64.985495471433 100.060033084701 -45.4291134594089 
1.35             3203.17837000949 -89.9995947832783 0.0413704758352804 -62.9533115718363 0.0559073310974298 -67.0885566324505 129.802374539946 -45.4583625321988 
1.36             3179.55896708711 -89.9995518176087 0.0538536860661271 -59.8161854903536 0.0704361284393654 -63.4971016636   185.711166724404 -37.8927993269985 
1.37             3156.28390086834 -89.9995058291438 0.070258613119554 -39.600945123433 0.0891861381990442 -42.8683949853342 257.497942919206 -11.8397252709382 
1.38             3133.34567542836 -89.9994569508813 0.0600121304294046 -11.4577253884861 0.0741174409171136 -14.3469948181792 223.684704480162 22.2054583217665 
1.39             3110.73703462815 -89.99940530583  0.0426261101499678 -1.57977453499892 0.0513311112216205 -4.12160866604009 156.166938733167 36.7129847025301 
1.4              3088.45091717515 -89.9993507307422 0.0331491939208258 -1.36826579242292 0.0389973554866233 -3.5896668549924 117.664474234134 39.8266589358541 
1.41             3066.48045867387 -89.9992932071832 0.028025173904847 -3.67665850655233 0.0322634451215058 -5.60150943147127 96.4267454863631 38.9650906994176 
1.42             3044.81898994934 -89.9992327350977 0.0249341888698599 -6.3232522938042 0.0281334636218134 -7.97281066216035 83.7682408567516 36.7849040166454 
1.43             3023.46002886855 -89.9991693113393 0.0228667572119516 -8.72773133825074 0.0253218998379573 -10.121025377075 75.6731854327094 34.2640060570924 
1.44             3002.39727348074 -89.9991029305221 0.0213631137622844 -10.7782311075469 0.0232466289102527 -11.9323806525011 70.2006170759649 31.7802594688294 
1.45             2981.62459571926 -89.9990335860539 0.0201958635918063 -12.494944977045 0.0216197532389736 -13.4254242304501 66.3346819370081 29.474470408085  
1.46             2961.13603542365 -89.9989612706352 0.0192435722219155 -13.9284947212278 0.0202867018737924 -14.6493493348653 63.5050205270006 27.3883645137036 
1.47             2940.92579462133 -89.998885976495 0.0184369503158597 -15.1297765391245 0.0191583273420258 -15.65380447139  61.3723781607198 25.522007888643  
1.48             2920.98823204568 -89.9988076955073 0.0177341535066737 -16.1421873088149 0.0181799328719406 -16.48109066811  59.7251639053433 23.8589449005796 
1.49             2901.31785787649 -89.9987264192612 0.0171086424666886 -17.0007810726315 0.0173161111682913 -17.1652945118411 58.4260883819398 22.377403243551  
1.5              2881.90932869132 -89.9986421390961 0.0165428489754825 -17.7333603317286 0.0165428489755394 -17.7333603316799 57.3830396649522 21.0552161119956 
