! Touchstone file from project FYP_Sim_Actual_Separated_Ports
! Exported from HFSS 13.0.2
# GHZ Z MA R 50.000000
! Terminal data exported
! Port[1] = PD2_Incision_Port_T1
! Port[2] = Radiating_Plate_T1
0                437134.622690558 -89.9992399774643 0.000703333152202629 -32.0161093876853 0.00070272449480322 -32.0009770735443 1147.4268954513  -89.2540430796661 
0.01             291231.965075466 -89.9999999066573 0.000377305964176355 -43.7279370133206 0.000376959801313763 -43.7116117042594 765.270273252793 -89.2401555362849 
0.02             145604.671314081 -90.0021011418922 0.000157540700336684 -82.5473622897859 0.000157396353660137 -82.5372584653116 383.358771829701 -89.1911654167461 
0.03             97047.0473326722 -90.006471795988 0.000139597283398353 -110.567897352022 0.000139512220632701 -110.561698784819 255.066148931069 -89.1902123436371 
0.04             72664.166112887  -90.1008564537071 0.00015873597469268 -134.176356849437 0.000158691720741569 -134.171136652751 190.211688063607 -89.1977544586271 
0.05             58304.3889047621 -90.002172889656 0.000190506384298844 -160.028606276554 0.000190497068334286 -160.028216304281 150.820700156771 -89.1967612115626 
0.06             48564.699280632  -89.9997208383155 0.000206824408646275 171.767780915385 0.000206824817549141 171.76302953725  124.199994193076 -89.1869922578792 
0.07             41620.5005850011 -89.9998647130048 0.000202649797131876 147.643420447849 0.000202646996340736 147.639574266073 104.887927455592 -89.1712825062972 
0.08             36414.601365114  -90.0000305209755 0.000200297570177537 128.414127336107 0.000200299437137055 128.413069033968 90.1432384318923 -89.1518122825178 
0.09             32366.2195177279 -90.0000794105399 0.000213014756237167 108.459554822276 0.000213023626818314 108.459153677662 78.4377307904852 -89.1292667812421 
0.1              29127.7254749434 -89.9999979916439 0.000229540368659327 79.0229414773624 0.000229541287389934 79.0220198965748 68.8515101929547 -89.1025780473191 
0.11             26478.565664836  -89.9636054333095 0.000820086549342113 68.3329303765418 0.000580423335940155 133.700470280185 60.7964034040763 -89.064657740835 
0.12             24281.0170386048 -89.9256326350427 0.00123442435741471 70.9375664678393 0.000903832225641179 139.985362421624 53.8960175521366 -89.0186310535447 
0.13             22430.7937186009 -89.9183848921082 0.00151689741162152 74.5467930550521 0.00113121592981776 140.645373199538 47.8754233592433 -88.9628903552244 
0.14             20837.540287966  -89.9460645495389 0.00170014834301487 78.3005785358068 0.00128355058774576 139.525430714842 42.5372122911946 -88.8944859205577 
0.15             19447.5517975866 -89.9717626493689 0.00180635939874441 82.0346177377264 0.00137894104858275 137.481943410904 37.7355341290916 -88.8087332566906 
0.16             18228.6493970553 -89.98610637413  0.00185114844266155 85.694186349087  0.00143131913106322 134.737944516827 33.3598438687073 -88.6984870644864 
0.17             17153.0730140736 -89.9933112413732 0.00184466407901709 89.2583114313184 0.00145088806083873 131.295997719979 29.3243570600434 -88.5528598940912 
0.18             16197.426939666  -89.996893384723 0.0017929013489621 92.7332738534267 0.00144528883221695 127.047599753075 25.5609928420747 -88.3549206425408 
0.19             15342.7871875604 -89.9986720957124 0.00169850641444002 96.1551858824138 0.00142059851360801 121.79086345242  22.0145250756213 -88.0773643734739 
0.2              14573.9339936921 -89.999537178753 0.00156098691005267 99.6113373890258 0.00138210292305807 115.211245020399 18.6391909803256 -87.6737951670834 
0.21             13878.546413972  -89.9999324093959 0.00137638217043073 103.30888299107  0.0013350131499524 106.828786510547 15.3963425600013 -87.0595041645386 
0.22             13246.5563263939 -90.0000862736891 0.00113639632181547 107.807419992433 0.0012853631089422 95.8855642926132 12.2530383381373 -86.0635039182095 
0.23             12669.6581719692 -90.0001196441569 0.000827911014765979 115.061977269733 0.00124179923651507 81.0880010376968 9.18213374300236 -84.285838044774 
0.24             12140.9392366895 -90.0000975273387 0.000450420980069984 136.583189735993 0.00122172445758438 59.9487762972264 6.167492059994   -80.5408475183455 
0.25             11654.5988854653 -90.000054948068 0.000422645870077628 -132.661540956218 0.00128190185451763 27.1379729738488 3.24554395401066 -69.3352397040806 
0.26             11205.7331145588 -90.0000104094684 0.0013087276682535 -101.942454213546 0.00167888916189321 -27.2757279998649 1.31793091427538 1.44595976756815 
0.27             10790.1674196943 -89.9999731340118 0.0031247791340879 -99.0549127069934 0.00300622024223484 -110.512970172299 3.51269398830373 63.9833334177754 
0.28             10404.3257883493 -89.999947065289 0.00803547895824635 -109.664898817042 0.00353901835492906 169.02953615706  6.62433081312463 73.9663095050732 
0.29             10045.1270078905 -89.9999331455962 0.0235241463732829 177.143944393319 0.0034551464889483 126.893410748493 9.94690975642891 77.1982031345652 
0.3              9709.90183978794 -89.9999306119432 0.0107815554776373 111.797929781312 0.00367082984828415 103.387094474077 13.469349470725  78.4729493471684 
0.31             9396.32634283557 -89.9999377187565 0.00681841006186339 93.7356315514237 0.00414647748833716 87.9430699651139 17.2344591875361 78.8543239188437 
0.32             9102.36773604428 -89.999952225544 0.00553069925663912 79.4621240960745 0.00485617134264943 76.7514387586487 21.3059228197129 78.6857998918896 
0.33             8826.24016485759 -89.9999716119175 0.00527509906299186 65.2726861674928 0.00582175303353855 68.0779755789418 25.766723607226  78.0863128812011 
0.34             8566.3683017144  -89.9999932297511 0.00572460418856713 52.071454440574  0.00710163890195487 60.9443601871924 30.7229891235585 77.0765442534214 
0.35             8321.35721084984 -90.0000143883031 0.0068214146425796 41.0710008697598 0.0087930085286108 54.6926072515353 36.3097081223345 75.6165899632047 
0.36             8089.96725482513 -90.0000324155383 0.00861976889289315 32.4515553295271 0.0110433648327499 48.8038190853039 42.6962118276501 73.6137218623153 
0.37             7871.09308617913 -90.0000447250696 0.0112829767827242 25.5983422681383 0.0140696805172681 42.8027299856251 50.0864545040965 70.9159494109072 
0.38             7663.74597001811 -90.0000489208546 0.0151092920036651 19.6360234772379 0.0181822584937153 36.1951880156529 58.7004086215877 67.2969870102931 
0.39             7467.03883823685 -90.0000429821773 0.0205611714451241 13.6702293870832 0.0237999482666661 28.4239562616679 68.7018070333144 62.4395361471801 
0.4              7280.1735947576  -90.0000255903976 0.0282630230275931 6.83853976696499 0.0314106854485674 18.8554582172906 79.9971750244562 55.9384038920792 
0.41             7102.430281256   -89.9999966855461 0.0388615900933851 -1.62826236605365 0.041363448427426 6.85361586107197 91.802551097889  47.3834800934285 
0.42             6933.15777883459 -89.9999583655406 0.0525817979314923 -12.1678624963035 0.0533515477674813 -7.95330129903769 102.06520272196  36.6298630779389 
0.43             6771.76576592565 -89.999916227575 0.0686216394010853 -24.4532210510454 0.065834015796757 -25.2089306033251 107.609500720862 24.2585483103679 
0.44             6617.71768176878 -89.9998811257043 0.0854438791368747 -37.2408941181712 0.0764900437836573 -43.6412779073273 106.220001709291 11.7522818569816 
0.45             6470.52446820287 -89.9998709843875 0.102530843740487 -49.1050107756962 0.0839261587968917 -61.745791756249 98.8799985670567 0.788604243637275 
0.46             6329.73890189786 -89.9999115983389 0.121611727196971 -59.4197811645645 0.0883481213086201 -78.6889216804884 88.6791432298613 -7.70164285546927 
0.47             6194.95045169184 -90.0000342865891 0.14644330178054 -68.5518640430285 0.0905418563955228 -94.3765454342586 78.2332823785499 -13.6477537037508 
0.48             6065.78085876082 -90.0002680098423 0.183121684589998 -77.5971015251542 0.091045612705245 -108.982502671629 68.8248374366083 -17.3964280791022 
0.49             5941.88090065851 -90.0006262649947 0.242488354865451 -88.4931117569273 0.0901413718605086 -122.616839065142 60.8244190474263 -19.3596155543738 
0.5              5822.92864915045 -90.0010949814148 0.343278357238467 -105.145884289575 0.0881105540308146 -135.273134447758 54.200802476164  -19.8818797534065 
0.51             5708.6287909877  -90.0016310118516 0.480392898221579 -135.048176283343 0.0853497441249337 -146.913869529165 48.7989163791763 -19.2247653397152 
0.52             5598.71180141238 -90.0021797798745 0.487282334503194 -175.799277437701 0.0823091205728088 -157.554855562636 44.4526687280148 -17.5890029810658 
0.53             5492.93052361358 -90.0026965764405 0.366780061739946 155.919117001483 0.079383006759395 -167.292118295629 41.0205002698004 -15.1425212599496 
0.54             5391.0576270793  -90.003146594293 0.276248135290331 140.706458728037 0.0768510943851168 -176.283425207591 38.3905483946822 -12.0440120839526 
0.55             5292.8829476836  -90.0035155039822 0.222118468075232 131.473025280786 0.07488004542678 175.283443206308 36.475384496608  -8.45849454156825 
0.56             5198.21080590026 -90.0038035032883 0.18886898848783 124.861267532721 0.0735538858607298 167.215801446313 35.2042591392855 -4.56287391506048 
0.57             5106.8585236379  -90.0040176407773 0.167500933193281 119.429997149942 0.0729063950181755 159.329880140919 34.5161081410004 -0.541235747031664 
0.58             5018.65539410399 -90.004166973328 0.15335171905082 114.478189224624 0.072944179145298 151.456031285381 34.3546458431939 3.4275542899325  
0.59             4933.44184010352 -90.0042599934513 0.143884907108684 109.613717025371 0.0736586654863206 143.439348613148 34.6658356564947 7.18470002088559 
0.6              4851.06864819215 -90.0043035856802 0.137617726023288 104.587944453263 0.075028377126146 135.138959666055 35.3972663420296 10.6030697739769 
0.61             4771.39624017172 -90.0043028234803 0.133610703344451 99.2266239460656 0.0770129881061899 126.42834348261  36.4985284312327 13.5921203985303 
0.62             4694.29397739278 -90.0042611496309 0.13120935815067 93.4001273775066 0.0795403907804567 117.198501707862 37.921677810204  16.0961265484662 
0.63             4619.63950293782 -90.0041806954951 0.129903960144985 87.0122986353455 0.0824889002176477 107.365446126992 39.6211828322414 18.0880693031961 
0.64             4547.31812633926 -90.004062630957 0.129250987121921 79.9994988204797 0.0856697817286014 96.8826645475752 41.5531427188038 19.5620801575776 
0.65             4477.22225236967 -90.0039075088103 0.128834240274987 72.3354029771399 0.0888203477360885 85.7572052851218 43.6738662030199 20.5265975307629 
0.66             4409.25085241858 -90.0037155961668 0.12825854155308 64.0377322822097 0.0916216223067191 74.0644451732136 45.9380714516123 20.9993072393322 
0.67             4343.30897511949 -90.003487185959 0.127172103530388 55.1725137167139 0.0937496554346938 61.9529486421508 48.297055149273  21.0040852744145 
0.68             4279.30729278955 -90.0032228699117 0.125307687067418 45.8514453885725 0.0949505686786388 49.6310754433489 50.6972318232833 20.5696766084745 
0.69             4217.16168144816 -90.0029237524306 0.122523020342048 36.2200689819648 0.0951059131068094 37.3346113836374 53.0794804028051 19.7296341582673 
0.7              4156.79283276391 -90.0025916031556 0.118817921021168 26.4387146868176 0.0942517690231648 25.286387574699  55.3797256703625 18.5229780969343 
0.71             4098.12589491265 -90.0022289622138 0.114316450733713 16.6621623116322 0.0925431699970338 13.664521409406  57.5310681517435 16.9950382487885 
0.72             4041.09013759803 -90.001839199962 0.109221603211876 7.02457986624426 0.0901899294204424 2.58976813786141 59.4674967560798 15.197993153626  
0.73             3985.61863669355 -90.001426506389 0.103762690520991 -2.36691473784863 0.087398971560018 -7.86928738896565 61.1287569420656 13.1907355063418 
0.74             3931.6479755808  -90.0009957838478 0.098153642046744 -11.4310695538039 0.0843416849120961 -17.6817865715723 62.4653648590827 11.0378768273502 
0.75             3879.11796089955 -90.0005524603945 0.0925693634149452 -20.1072366389321 0.0811448230262527 -26.8394011013497 63.4421930109686 8.80785446736238 
0.76             3827.97134889846 -90.0001023366094 0.0871373321106119 -28.3497509519272 0.0778943431428278 -35.3452033374281 64.0387485439149 6.56986502523056 
0.77             3778.15357612785 -89.9996517630167 0.0819380839396052 -36.1249883016521 0.07464267304086 -43.2085399907331 64.2450811196457 4.38799786857013 
0.78             3729.61249095523 -89.9992088243109 0.0770116724141509 -43.4137676539749 0.0714166554124963 -50.4470515245373 64.0572779793561 2.30882281221227 
0.79             3682.29811288294 -89.9987869480795 0.0723747346811832 -50.2177704851049 0.0682323363273824 -57.0933992923286 63.4878200565805 0.344289116995024 
0.8              3636.16257558697 -89.9984132783493 0.0680462609749677 -56.5546684337045 0.0651174138181375 -63.1908002409838 62.5971147837318 -1.52273411887558 
0.81             3591.16076869136 -89.9981423159188 0.0640490789726364 -62.4318762768205 0.0621111103378354 -68.7670446834367 61.4928259600487 -3.29183927351184 
0.82             3547.25253609842 -89.9980590876722 0.0603800151125539 -67.8342791464156 0.0592327814895306 -73.8222659569398 60.2698001917331 -4.92375629554789 
0.83             3504.40526314778 -89.9982220837676 0.0570009786425249 -72.7408735199247 0.0564693813125909 -78.3453496681841 58.9782967815246 -6.37443858476937 
0.84             3462.59002799209 -89.9985521865626 0.0538548745634165 -77.1349966884996 0.0537881976666589 -82.3235443760463 57.6431679353012 -7.61952006729154 
0.85             3421.77138750846 -89.99886573159  0.0508759415218472 -80.9986417387059 0.0511458855668448 -85.7355093119726 56.283583746416  -8.65127389378019 
0.86             3381.90752580371 -89.9990563360282 0.0479891134620014 -84.301136305751 0.0484876794621831 -88.5375131443174 54.9190894102076 -9.46961191814007 
0.87             3342.95901168388 -89.9991335438714 0.0451028300255579 -86.9840321490373 0.0457408035296746 -90.6433978888001 53.5701581310122 -10.0766782746205 
0.88             3304.89181600458 -89.9991436804081 0.0420952129233244 -88.9353369393631 0.0428024504401332 -91.888560226443 52.2583180557663 -10.4750207006273 
0.89             3267.67568431045 -89.999123085271 0.0387882298371422 -89.9342558762936 0.0395189133103068 -91.9517147902272 51.0067540880958 -10.6682532742938 
0.9              3231.28251270796 -89.9990919322854 0.0348969382788504 -89.5081140814052 0.035650221096497 -90.1548083517301 49.840751852469  -10.6637599022191 
0.91             3195.68559861419 -89.9990594890673 0.0299285093612595 -86.4696190068089 0.0308267544566417 -84.842614368281 48.7868845458883 -10.4770165350234 
0.92             3160.85936797528 -89.9990290935108 0.0230415225844459 -76.8093099981051 0.0246863610203858 -70.9051672674203 47.8699016341858 -10.1362080604013 
0.93             3126.77927451139 -89.9990011667795 0.0145945201704018 -37.7639841838904 0.0197275166772182 -29.4776369801613 47.1071695419717 -9.68441445094573 
0.94             3093.42174393014 -89.998975003372 0.0311194338583197 51.0047802236808 0.0374540369772491 39.3477697325693 46.5023818565725 -9.17620296539224 
0.95             3060.76426211872 -89.9989511862994 0.120640465670885 108.289824274958 0.1062237243737  96.252202485673  46.0420100767799 -8.66778679077336 
0.96             3028.78494018944 -89.9989178845182 0.147470222831871 -178.317790186863 0.135086689177341 159.158869041125 45.6974525258847 -8.20443978463799 
0.97             2997.46290246484 -89.9988897871737 0.108139694166551 -153.683303479328 0.107516839862207 -173.407896414333 45.4325748971476 -7.81177652034508 
0.98             2966.77838479361 -89.9988566395019 0.0904888747395724 -145.562844334723 0.0911151288724745 -163.107856478542 45.2127650915944 -7.49466691281808 
0.99             2936.71204519243 -89.9988177816985 0.0815579624854675 -142.156799500391 0.0820189076464127 -158.598783350443 45.0113127680015 -7.24291961223012 
1                2907.24541283374 -89.9987726631215 0.0763994070778341 -140.659221896831 0.0764490584269604 -156.590731078595 44.8115153998986 -7.03909555217674 
