! Touchstone file from project FYP_Sim_Actual_Separated_Ports
! Exported from HFSS 13.0.2
# GHZ S MA R 50.000000
! Terminal data exported
! Port[1] = PD2_Incision_Port_T1
! Port[2] = Radiating_Plate_T1
0                0.999999999335159 0                9.04719718851591E-010 0                1.47082927450375E-010 180              0.999152895590669 0                
0.01             0.999999999744691 -0.0182921901089322 9.85160664336992E-010 -19.5391215297579 1.17049578443072E-010 145.192975161121 0.99836437519289 -7.13099163861107 
0.02             1.0000000009331  -0.0365845035208149 1.21165115515937E-009 -33.878307836425 1.50965252276916E-010 61.0098024466345 0.996566335160895 -14.1810939455503 
0.03             1.0000000027164  -0.0548770268735901 1.57644432676148E-009 -42.0253562088942 4.76508389081291E-010 21.6058958594451 0.99493351818005 -21.1785223318266 
0.04             1.00000000474694 -0.0731696653608384 2.13021575141324E-009 -44.2730337882394 1.22203731959079E-009 3.9821227342997  0.993458365691191 -28.1464764258462 
0.05             1.00000000583687 -0.0914602667017174 3.16576933324781E-009 -38.7134138661653 2.92671420468616E-009 -14.4466731275492 0.992036365418517 -35.0885900691953 
0.06             1.00000001101314 -0.109764790324819 8.04057106520456E-009 -22.1576009480919 6.73645273965366E-009 -45.8925911177193 0.990635721041512 -42.0032343762616 
0.07             1.00000001076427 -0.128057340667019 1.54537518894816E-008 -123.752393206542 1.09492119289019E-008 -92.4542285535944 0.989269719971189 -48.8891334523223 
0.08             1.00000000966251 -0.146353535386031 1.31653359602852E-008 -120.822407236345 1.30850139583081E-008 -127.091794950109 0.987965239881135 -55.7468731963196 
0.09             1.00000000623049 -0.164651370631288 2.51987700947169E-008 -137.461494010211 1.8577886708833E-008 -155.418848845455 0.986742216744651 -62.5792060654771 
0.1              0.999999999522787 -0.182950754148327 2.93309436406224E-008 139.917536194569 2.92087992873538E-008 139.304594535766 0.985599595288037 -69.390967496415 
0.11             0.999999974216606 -0.201237385774427 3.98483896495853E-008 166.874083657251 4.08199357805592E-008 166.939015082221 0.984482366391831 -76.1852176941637 
0.12             0.999999963219249 -0.219524819696489 5.52958387386662E-008 -175.049450138125 5.71340761609298E-008 -175.320955474319 0.983427542650189 -82.9590583255442 
0.13             0.999999962925337 -0.237813091427683 7.4153823018002E-008 -161.744543563473 7.63013652528328E-008 -162.256046991527 0.982424003984453 -89.7176676627544 
0.14             0.99999997043571 -0.256102254528107 9.58773158276763E-008 -150.639668205672 9.7707589577715E-008 -151.123058273702 0.981447021323714 -96.4670626524168 
0.15             0.999999983230979 -0.274392392191845 1.20370776436086E-007 -140.383511033697 1.2126340696325E-007 -140.597470227087 0.980458774947862 -103.214007335885 
0.16             0.999999998907694 -0.292683628825521 1.47758349021589E-007 -130.185272950538 1.47174286390373E-007 -129.953142873019 0.979409058552788 -109.96594800543 
0.17             1.00000001493337 -0.310976144749319 1.78292310227466E-007 -119.490893332708 1.75884987421321E-007 -118.726310954607 0.978235991709382 -116.730977078296 
0.18             1.00000002837696 -0.32927019725317 2.12285693749754E-007 -107.836531253985 2.08062888950507E-007 -106.582795088446 0.976866584597114 -123.517825002466 
0.19             1.00000003556039 -0.347566152491495 2.49991680742344E-007 -94.7857933034819 2.44542363359873E-007 -93.269716949454 0.975217024345427 -130.335877347816 
0.2              1.00000003154706 -0.365864535520467 2.91340860424464E-007 -79.9232801654814 2.86141914265324E-007 -78.6091405282106 0.973192580161234 -137.195212460935 
0.21             1.0000000093163  -0.384166111421557 3.35455605426962E-007 -62.9130873563436 3.33249737748803E-007 -62.5189594758081 0.970687054899941 -144.106653509059 
0.22             0.999999958324622 -0.402472021861449 3.80049919262429E-007 -43.6424145610436 3.85142583267817E-007 -45.0551587533739 0.967581745937283 -151.081827239606 
0.23             0.999999861808433 -0.420784025631663 4.21369592666496E-007 -22.4259656541472 4.39289704819246E-007 -26.4635016581409 0.963743921867042 -158.13322018438 
0.24             0.999999691307903 -0.439104946442041 4.55675775198936E-007 -0.121781438472176 4.9134375770445E-007 -7.2041272937788 0.959024878976797 -165.274221228425 
0.25             0.999999394440484 -0.457439565053153 4.81787938215611E-007 22.0514044584645 5.36473699313641E-007 12.1089196725524 0.95325771930089 -172.519137399996 
0.26             0.999998864105517 -0.47579655073162 5.0193088681379E-007 42.9553243830661 5.71471836605448E-007 30.8701826714793 0.94625509781933 -179.883167497301 
0.27             0.999997847369505 -0.494193078247596 5.19806039633487E-007 61.8832015739456 5.95912868105242E-007 48.6635609615564 0.937807327030038 172.617683974746 
0.28             0.99999560694629 -0.512666971218475 5.38325566418341E-007 78.6083383104213 6.11576051651529E-007 65.347670190766  0.92768140614773 164.966771544353 
0.29             0.999989153359894 -0.531303792720347 5.58860699926616E-007 93.2393311461463 6.21116635590097E-007 81.0246067728189 0.915621754160489 157.147070925497 
0.3              0.999960223590831 -0.549830112643138 5.81576092576538E-007 106.054760834157 6.27166989661293E-007 95.9554885038803 0.90135364806733 149.141553766414 
0.31             0.999968064658859 -0.564518870469547 6.05955133553091E-007 117.391645744732 6.32158968748403E-007 110.482009297302 0.884590548312907 140.933681140504 
0.32             0.999997055573927 -0.583581094299992 6.31147286734691E-007 127.590019838142 6.3862483308352E-007 124.970652306021 0.865046541649801 132.508004868771 
0.33             1.00000132091138 -0.602347794709149 6.56127541294356E-007 136.976027620634 6.49720762182074E-007 139.767351344863 0.842454914132768 123.850838490682 
0.34             1.00000234026145 -0.620856315939638 6.79748725758798E-007 145.868756332238 6.6982185400652E-007 155.142462852555 0.816593227799225 114.950921730304 
0.35             1.00000263036933 -0.639258886367827 7.00766409178577E-007 154.604029058832 7.05046208514786E-007 171.215958423279 0.787314093668072 105.799956868715 
0.36             1.00000266919309 -0.657609460880322 7.17928510707897E-007 163.576656063648 7.63493125344703E-007 -172.114356102947 0.754579130495529 96.3928515370823 
0.37             1.00000258171574 -0.675930678541178 7.30314441167943E-007 173.311409509992 8.55002229353296E-007 -155.175727419001 0.71849165593701 86.7274756006132 
0.38             1.00000240460753 -0.69423370610279 7.38417899681869E-007 -175.418887888768 9.90536862418514E-007 -138.399441051585 0.679322084767979 76.8037495723035 
0.39             1.00000214746834 -0.712524886542072 7.47380385180867E-007 -161.425623914734 1.18164516639001E-006 -122.126090857884 0.637519636093031 66.6219453045778 
0.4              1.00000181165706 -0.730808345599465 7.76116251202424E-007 -143.064356121082 1.44027300163126E-006 -106.469682329191 0.593705473007391 56.1802019090089 
0.41             1.00000139797684 -0.74908713818199 8.79182472856012E-007 -119.214341602857 1.77844921701629E-006 -91.3090386372274 0.548645885269104 45.4714295699858 
0.42             1.00000091095449 -0.767363777552725 1.18213298544647E-006 -92.0949620655218 2.20663758940163E-006 -76.3652058920852 0.503208707868814 34.4799692381206 
0.43             1.00000036181494 -0.78564045904811 1.9357495365573E-006 -66.626126943637 2.72921678605973E-006 -61.3033515917003 0.458310222191617 23.1785846285825 
0.44             0.999999770556166 -0.803919111543315 3.78889527434397E-006 -43.4350489113229 3.33609678275119E-006 -45.8396586715275 0.41486165488944 11.5266056086714 
0.45             0.999999166958554 -0.82220135222377 9.45086440335039E-006 -12.3464098140182 3.99265745447231E-006 -29.8578542286139 0.373723213154253 -0.529621503489951 
0.46             0.999998590273948 -0.840488408072449 1.86520089273898E-005 70.6822665122851 4.63708635771579E-006 -13.5115654051017 0.335669690487859 -13.0523442466632 
0.47             0.999998087544389 -0.858781068298026 1.08299477362573E-005 121.226591109302 5.19723460347339E-006 2.76817782870822 0.301366294606936 -26.1019499179323 
0.48             0.999997710827997 -0.877079727538521 7.88919918711578E-006 137.941185679278 5.62319628600498E-006 18.4254498573194 0.271348242253803 -39.7184148257243 
0.49             0.999997513809402 -0.895384561866785 6.73688088113905E-006 147.438822208806 5.90841690838481E-006 33.0131501997577 0.245995092640758 -53.8946702165962 
0.5              0.999997548092435 -0.913695849448089 6.2245138220759E-006 154.281824583096 6.08156125071008E-006 46.3348706593229 0.22549380350303 -68.5475103587515 
0.51             0.999997858807515 -0.932014409141763 6.01473867499712E-006 159.795998595898 6.18354946431418E-006 58.4308889100068 0.209795625443082 -83.4999812517835 
0.52             0.999998478195616 -0.950342078625372 5.97968548088131E-006 164.533599404763 6.25075608846189E-006 69.4848241050469 0.198588021978558 -98.4929464075183 
0.53             0.999999415175637 -0.968682069533263 6.06289100535259E-006 168.780985522545 6.30954528690008E-006 79.7371024732534 0.191310138135438 -113.232203825126 
0.54             1.00000063984628 -0.987038908909847 6.2378812268132E-006 172.711049339951 6.37734979990084E-006 89.4349690031642 0.187224286139344 -127.453389239011 
0.55             1.00000206622139 -1.0054175722965 6.49314012962961E-006 176.44171028789  6.46556370859765E-006 98.8128463413581 0.185523571651857 -140.972505357429 
0.56             1.00000354451333 -1.02382157186556 6.82601811826422E-006 -179.9371463381  6.58213537199553E-006 108.089761213698 0.18543609228764 -153.701860289018 
0.57             1.0000048798729  -1.04225047667205 7.24026055976658E-006 -176.349040817845 6.73335926607895E-006 117.474371761392 0.186295266209358 -165.635557345821 
0.58             1.00000588457161 -1.06069836638462 7.74530742891557E-006 -172.721332985854 6.92490213942989E-006 127.172494748044 0.187569538569223 -176.821783368966 
0.59             1.00000644214494 -1.07915481603913 8.35670767699945E-006 -168.977361709387 7.16211467382565E-006 137.394454735181 0.188861710156097 172.66352611174  
0.6              1.00000654232772 -1.09760827856844 9.09748657909826E-006 -165.028198425779 7.44948645163958E-006 148.360148277516 0.189892182339225 162.735405924611 
0.61             1.00000626524372 -1.11604970045899 1.00005541999701E-005 -160.762068215122 7.78881212367364E-006 160.298679218204 0.190476923283949 153.310749973006 
0.62             1.00000573361038 -1.13447427818576 1.1112345020995E-005 -156.028883232985 8.17537745301031E-006 173.436723263619 0.190506078483348 144.313473548615 
0.63             1.00000506734258 -1.15288109742252 1.2497646046446E-005 -150.615936492389 8.59170788722131E-006 -172.034159814561 0.189925603183984 135.676187360088 
0.64             1.00000435915093 -1.17127173159186 1.42441106514526E-005 -144.208653052894 9.00032699693499E-006 -156.022613679792 0.18872237656583 127.34002508555  
0.65             1.00000366965354 -1.18964885574121 1.64590622795506E-005 -136.329165702863 9.34177663660148E-006 -138.634192647002 0.186912449067777 119.253642591429 
0.66             1.00000303275952 -1.20801532371859 1.92308481826072E-005 -126.256593130877 9.54864189159542E-006 -120.258659702145 0.184531851526529 111.371958246398 
0.67             1.00000246375778 -1.22637370534012 2.24723055367076E-005 -113.005125874585 9.57800141167912E-006 -101.558981393766 0.181629424414957 103.654928395272 
0.68             1.00000196641937 -1.24472612678006 2.552170607428E-005 -95.6908866493415 9.4395897359111E-006 -83.3058435507108 0.178261235479458 96.0664983775449 
0.69             1.00000153809712 -1.26307426783918 2.68517191060659E-005 -74.8474026510175 9.19007412512045E-006 -66.1441012498837 0.174486269407797 88.5737898206337 
0.7              1.00000117299735 -1.28141942282578 2.53495658754208E-005 -53.5657870799792 8.89940942606523E-006 -50.4531004664266 0.170363167879405 81.1465466544178 
0.71             1.00000086411976 -1.29976257675033 2.19918776921296E-005 -35.2474671180676 8.62187596604322E-006 -36.3545642310548 0.165947868256051 73.7568453720936 
0.72             1.00000060432931 -1.31810447598379 1.84124399475754E-005 -20.8303062093925 8.38762187668732E-006 -23.7977017449359 0.161292037700954 66.3790676223862 
0.73             1.00000038690006 -1.33644568659812 1.53688831957594E-005 -9.53800497496851 8.20769271053793E-006 -12.6443939474481 0.156442230956926 58.9901279654705 
0.74             1.00000020575376 -1.35478663985742 1.29621638344267E-005 -0.342499219986923 8.08200594784043E-006 -2.72576143537324 0.151439716491691 51.5699417103696 
0.75             1.00000005553025 -1.37312766662681 1.10884469440943E-005 7.54144657825234 8.00540523296822E-006 6.12745849895404 0.146320916317006 44.1021038274328 
0.76             0.999999931570864 -1.39146902298437 9.62386309399129E-006 14.6448463309531 7.9711587957967E-006 14.0710406701007 0.14111838633669 36.5747281636029 
0.77             0.999999829860692 -1.4098109091405 8.46927482838957E-006 21.3208636430843 7.97264729268777E-006 21.2422892952631 0.135862223634198 28.9813670088854 
0.78             0.999999746955459 -1.42815348338019 7.55307044868538E-006 27.8060751931549 8.00402916033299E-006 27.759432326121  0.130581726115191 21.3218982587602 
0.79             0.99999967990621 -1.44649687234748 6.82520762235087E-006 34.2569239861008 8.06040256820177E-006 33.7229856811322 0.125307059093523 13.6032388850281 
0.8              0.999999626188516 -1.4648411786555 6.251082473778E-006 40.7682291734702 8.13774948037378E-006 39.2178602479039 0.120070625789779 5.83973051656706 
0.81             0.999999583638979 -1.48318648654333 5.80678508661037E-006 47.3809824887977 8.23280306361257E-006 44.3156087266363 0.114907826901894 -1.94694255252974 
0.82             0.99999955039983 -1.50153286610396 5.47563634049965E-006 54.0854538270434 8.34290221195187E-006 49.0765343566295 0.109856958993661 -9.72839368101647 
0.83             0.999999524871419 -1.51988037646346 5.24566401022277E-006 60.8248597762788 8.46585864943928E-006 53.5515508540804 0.104958152587694 -17.470743363247 
0.84             0.999999505671871 -1.53822906818677 5.10777047293903E-006 67.5036878631207 8.59984437050668E-006 57.7837667283007 0.100251462588449 -25.1363139794843 
0.85             0.999999491603071 -1.55657898511014 5.05446716644745E-006 74.0022507101842 8.74329965095133E-006 61.8098067206573 0.0957744343502402 -32.6856412892526 
0.86             0.99999948162207 -1.57493016574608 5.07911240278611E-006 80.1954644818649 8.89485911415992E-006 65.6608994714006 0.0915596040753654 -40.079583565298 
0.87             0.999999474817109 -1.59328264436768 5.17557720514205E-006 85.9710574420318 9.05329270902987E-006 69.3637650741375 0.0876324014512018 -47.2813051946607 
0.88             0.999999470387513 -1.6116364518507 5.33821629143332E-006 91.2423144542664 9.21745868858223E-006 72.9413350899767 0.084009804851832 -54.2579501794184 
0.89             0.999999467626838 -1.62999161633189 5.56199239144112E-006 95.9530097687259 9.3862661986286E-006 76.4133341358021 0.0806999038187074 -60.9818857941707 
0.9              0.999999465908726 -1.64834816372665 5.84261908676105E-006 100.075388615721 9.55864564799018E-006 79.7967480134737 0.0777023212362367 -67.4314676039671 
0.91             0.999999464675013 -1.66670611813854 6.17663694736892E-006 103.603962828049 9.73352553999502E-006 83.1061993210083 0.075009298432731 -73.5913385924209 
0.92             0.999999463425719 -1.68506550218517 6.56138909357002E-006 106.548013124625 9.909814869376E-006 86.3542479316855 0.0726071775829591 -79.452319681437 
0.93             0.9999994617106  -1.70342633725889 6.99489479050911E-006 108.924771381006 1.00863905254562E-005 89.5516307513398 0.0704780212950103 -85.0109754097896 
0.94             0.999999459122015 -1.72178864373649 7.4756305026115E-006 110.754186304345 1.02620893960706E-005 92.7074527579606 0.0686011633600629 -90.2689493930275 
0.95             0.999999455288873 -1.74015244114871 8.00222453375235E-006 112.055429241867 1.04357050422469E-005 95.8293394265354 0.0669545577419135 -95.2321628372338 
0.96             0.999999449871498 -1.75851774831797 8.57306308071461E-006 112.844939219359 1.06059889148296E-005 98.9235591592096 0.0655158622749579 -99.9099592433133 
0.97             0.99999944255726 -1.77688458347076 9.18579934586558E-006 113.135720683642 1.07716561129856E-005 101.995123183444 0.0642632469589188 -104.314262769669 
0.98             0.999999433056844 -1.79525296432978 9.83675879379648E-006 112.937657780114 1.09313956426257E-005 105.047869457344 0.0631759509161699 -108.458799570868 
0.99             0.999999421101061 -1.81362290818981 1.0520248119526E-005 112.258698446451 1.10838850236441E-005 108.084536345362 0.0622346293129275 -112.35841344783 
1                0.999999406438117 -1.8319944319804 1.12278089255042E-005 111.106831120496 1.12278089257513E-005 111.106831120763 0.0614215364516292 -116.028491307749 
