! Touchstone file from project FYP_Sim_Actual_Separated_Ports
! Exported from HFSS 13.0.2
# GHZ S MA R 50.000000
! Terminal data exported
! Port[1] = PD1_Void_Port_T1
! Port[2] = Radiating_Plate_T1
0                0.99999994738846 0                8.98340145244209E-011 180              8.98338680868768E-011 180              0.999190721619016 0                
0.01             0.999999999999904 -0.0142955408672145 7.29923563285812E-011 146.544360394361 7.29923437693636E-011 146.544133836834 0.99843478434625 -6.98272322122427 
0.02             1.00000010139961 -0.0285852118953193 9.59928870361646E-011 67.704720918586  9.59934401016833E-011 67.7046978420318 0.996712230014831 -13.8915290037616 
0.03             1.00000011149086 -0.0428722936352417 2.96521803231149E-010 30.1144786253771 2.9652256722503E-010 30.114577236821  0.995139871998474 -20.7558973259703 
0.04             1.00000005633338 -0.0571640187801863 7.67160794990668E-010 13.8430137556532 7.67161784600121E-010 13.8430932105837 0.993713446120163 -27.6008746162239 
0.05             1.00000001181232 -0.0714607630285892 1.86305721725662E-009 -3.47601962822773 1.86305833694047E-009 -3.4759549858062 0.992332611126536 -34.4327424909565 
0.06             0.999999994152734 -0.0857608415661206 4.29559297368991E-009 -34.1218232749953 4.29559359381562E-009 -34.1217506491961 0.99096569988589 -41.2525172404612 
0.07             0.999999994598496 -0.100063475673902 6.93015398571983E-009 -78.2575390641817 6.93015660278683E-009 -78.2574525523154 0.989624460857984 -48.0613228884855 
0.08             1.00000000189845 -0.114368524989502 8.49511213000205E-009 -110.377661019102 8.4951170268538E-009 -110.377590810481 0.988334110051988 -54.8618536250606 
0.09             1.00000000641109 -0.12867608298546 1.23343964836078E-008 -137.517747405388 1.23344020363555E-008 -137.517685915289 0.987113448913197 -61.6586874358398 
0.1              0.99999999997374 -0.142986300509991 1.91858198419092E-008 160.155664851799 1.91858336508906E-008 160.155744983256 0.98596087775183 -68.4582305869433 
0.11             1.00000000998462 -0.157284461406906 1.75499995464712E-008 173.742402810651 2.16419632304705E-008 -178.28146121144 0.984706136570659 -75.2674594969119 
0.12             1.00000001761377 -0.171582651423789 1.65571269867984E-008 -164.077137660445 2.62852445559252E-008 -156.431742147771 0.983496695950983 -82.0800935520985 
0.13             1.00000002272022 -0.185880918830357 1.85022403089738E-008 -134.602854522585 3.39635792016969E-008 -136.395036462823 0.98233053942067 -88.9014857924142 
0.14             1.00000002532752 -0.200179311639385 2.55733021888637E-008 -108.12012690722 4.53093959331209E-008 -118.997030279555 0.981191884912069 -95.7377143767689 
0.15             1.00000002560943 -0.214477875420835 3.82076906756761E-008 -89.6800553430634 6.08650299024208E-008 -103.89176350865 0.980050372185735 -102.595496566954 
0.16             1.00000002386771 -0.228776651505276 5.64757413937809E-008 -76.7157423585351 8.11897917567513E-008 -90.3376731241202 0.978860593778018 -109.482103206879 
0.17             1.00000002050491 -0.243075675627694 8.0974845489024E-008 -66.4111796502382 1.06830501535943E-007 -77.633521661364 0.977561916278256 -116.405278629632 
0.18             1.00000001599463 -0.257374977004807 1.12694736051211E-007 -57.0808412511597 1.38160841418135E-007 -65.2319738295908 0.97607853424226 -123.373169944274 
0.19             1.00000001085123 -0.271674577791521 1.52667565150981E-007 -47.7122212743872 1.75100782397727E-007 -52.7450503011927 0.974319697566468 -130.394268531747 
0.2              1.00000000560058 -0.285974492827783 2.0135410107032E-007 -37.632917296257 2.16759540723976E-007 -39.9396943620543 0.972180053909418 -137.47736530151 
0.21             1.00000000075221 -0.300274729565198 2.57548565947035E-007 -26.4022530200767 2.61157138694377E-007 -26.7415115764191 0.969540051129333 -144.631519787549 
0.22             0.999999996772991 -0.314575288050283 3.1696930509586E-007 -13.8583546858654 3.05298921729687E-007 -13.2291029957251 0.966266352417951 -151.866041443288 
0.23             0.999999994061078 -0.328876160833317 3.71804848807911E-007 -0.229440718158433 3.45792855701007E-007 0.407594941431273 0.962212231921159 -159.190479489107 
0.24             0.999999992918602 -0.343177332662457 4.13159737382317E-007 13.8692356114022 3.79790529545958E-007 13.9513601068068 0.957217945403518 -166.614615368195 
0.25             0.999999993520183 -0.3574787798053 4.35668683976848E-007 27.7015269800278 4.05659157259573E-007 27.2545594520219 0.951111113924267 -174.148449337102 
0.26             0.99999999587336 -0.371780468805749 4.39731479679183E-007 40.796438691438  4.22976242613932E-007 40.3071580218974 0.943707223400232 178.197829879377 
0.27             0.99999999976523 -0.386082354421009 4.29406869499435E-007 53.1520079140269 4.31998250006051E-007 53.2615661068188 0.934810432595575 170.413905791106 
0.28             1.00000000468692 -0.4003843763733 4.09251887557445E-007 65.2147804027272 4.33038724113201E-007 66.4349920649028 0.924214995892355 162.489440220287 
0.29             1.00000000972337 -0.414686454361551 3.83003632683568E-007 77.829973813432  4.26065694942832E-007 80.3233636906676 0.911707737409289 154.414239848758 
0.3              1.00000001338909 -0.428988480452763 3.54363498107377E-007 92.3156438782921 4.10661016041434E-007 95.6591390095579 0.897072140520396 146.178495857288 
0.31             1.00000001337947 -0.443290307402019 3.29899465952078E-007 110.611998636795 3.86573318232483E-007 113.545148132205 0.880094706553181 137.773102994659 
0.32             1.00000000618798 -0.457591730419612 3.25213287301915E-007 134.779797131382 3.55570226715325E-007 135.674094856505 0.860574234609122 129.190053009635 
0.33             0.99999998650775 -0.471892457970296 3.72234907298701E-007 164.028892905355 3.25954227581972E-007 164.350332541968 0.838334510994594 120.422879908501 
0.34             0.999999946278522 -0.486192063392799 5.1548708199007E-007 -167.136011437437 3.18577451072557E-007 -159.330424478013 0.813240498921567 111.467111072793 
0.35             0.99999987313973 -0.500489901272212 8.0927850404145E-007 -141.614728695487 3.5856000603387E-007 -120.166871613716 0.785217441429977 102.320650967538 
0.36             0.999999747870589 -0.514784955256298 1.33958747565436E-006 -115.780322768913 4.45627085410335E-007 -85.8957179552697 0.754271361107013 92.9839978966293 
0.37             0.999999540087177 -0.529075543578893 2.1227212988094E-006 -82.5724606251976 5.55247147240027E-007 -58.6329623695687 0.720508410969563 83.4601769377764 
0.38             0.999999200998701 -0.543358706592605 2.5600588370894E-006 -42.2979307302225 6.65587611978658E-007 -37.0108361391233 0.684149699081869 73.754273492802  
0.39             0.999998651770752 -0.557628822848064 2.2909803742119E-006 -11.3068590557537 7.66951720453008E-007 -19.5234617364237 0.645537968721516 63.872480120505  
0.4              0.999997769181949 -0.571874188247653 1.91822828839946E-006 7.03171057442787 8.58399036482581E-007 -5.0586637163781 0.605133211548886 53.8206270269286 
0.41             0.999996398455744 -0.586067874971406 1.63929167198952E-006 18.2273337617413 9.42862475953527E-007 7.20721227402635 0.563496014772549 43.6022471610277 
0.42             0.999994617495879 -0.600143944094894 1.43551010138719E-006 25.701505781009  1.02426997478547E-006 17.9008982005569 0.521259876125236 33.2163151960067 
0.43             0.999994492304145 -0.613975610508588 1.27525487580647E-006 31.0733776104696 1.10648512167282E-006 27.5102497789905 0.479096161322434 22.6548788166519 
0.44             1.00000330870271 -0.627712053592209 1.13681826432294E-006 35.1580288571748 1.19319146781458E-006 36.4289677102587 0.437677002451688 11.9008630242731 
0.45             1.00001600904492 -0.642094604313062 1.0054391657142E-006 38.4190863403101 1.28816630586096E-006 44.9946413664233 0.397641666465359 0.926385694111384 
0.46             1.00002025633836 -0.656700016346852 8.69790766696951E-007 41.1720857839581 1.39573728582661E-006 53.5232955382842 0.359570694625691 -10.3079896414443 
0.47             1.00002033709593 -0.671130277782633 7.19689696673512E-007 43.7160955906322 1.52141116483038E-006 62.3445518804129 0.323969853990313 -21.852472024907 
0.48             1.00001913892694 -0.685425749627385 5.44543971428278E-007 46.5523863573824 1.67276020084477E-006 71.8436449786635 0.29126331117156 -33.7648670585985 
0.49             1.00001713289749 -0.699655781455258 3.32413483384036E-007 51.4591389360192 1.8606582755046E-006 82.5199728279951 0.261793030323694 -46.1038163514182 
0.5              1.00001435429075 -0.713873476545204 8.17241378896078E-008 86.3727608867823 2.10064546119431E-006 95.0768425357167 0.235819630823634 -58.9171506784363 
0.51             1.00001102294101 -0.728118080251257 2.92539122588799E-007 -148.181553358291 2.41240770536278E-006 110.55714212407  0.213519249799586 -72.224773965269 
0.52             1.00000757879219 -0.742408813802442 7.4419685770341E-007 -141.00432788602 2.80777854070435E-006 130.486166984562 0.194972135302998 -85.9979313368049 
0.53             1.00000445972563 -0.756743376845303 1.35504697754069E-006 -138.823489669456 3.23818108766403E-006 156.651405853579 0.180142845222409 -100.141160875888 
0.54             1.00000191413412 -0.771106923263915 2.19671451596114E-006 -137.809133816981 3.5037645463302E-006 -170.699361466923 0.168859098905699 -114.487524539263 
0.55             0.999999985699392 -0.785483125608806 3.38791127372801E-006 -137.233486691022 3.40346270147641E-006 -135.743714401365 0.160803095894858 -128.816506587268 
0.56             0.999998598434057 -0.799859968653593 5.13270201517954E-006 -136.756758167605 3.09770062245208E-006 -104.24051118792 0.155528642734737 -142.893408778787 
0.57             0.999997639542154 -0.81423045224503 7.80800243230101E-006 -136.025052699168 2.84925717221587E-006 -78.2507671911773 0.152506130750745 -156.514926550905 
0.58             0.999997004934787 -0.828591183499858 1.21799124600905E-005 -134.405566286916 2.7426072637529E-006 -57.2842997109   0.151182299417519 -169.541071918371 
0.59             0.999996615597125 -0.84294080915905 2.0003139618763E-005 -130.399545692419 2.76643735818864E-006 -40.3846309516539 0.151035225692568 178.096477286432 
0.6              0.999996420166021 -0.857278904310595 3.56553946657324E-005 -119.650940326365 2.89687258645088E-006 -26.6482250864335 0.151610989545782 166.405413388151 
0.61             0.999996393828187 -0.871605325421127 6.3533368801892E-005 -89.6727269800215 3.12061500443464E-006 -15.2927740508938 0.15253950463256 155.352313871803 
0.62             0.99999653870521 -0.885919914557249 6.51562300686921E-005 -45.378484212209 3.43767364497822E-006 -5.67015688395879 0.153534590146074 144.881540745606 
0.63             0.999996888530232 -0.900222524178788 4.73718295416989E-005 -25.3606645401631 3.86130287737708E-006 2.7501780818247  0.154385277794637 134.929306279489 
0.64             0.999997519432531 -0.914513537857453 3.66581899916583E-005 -20.2458431437638 4.42001086050566E-006 10.420369857198  0.154943852046329 125.432407943674 
0.65             0.999998565784681 -0.928795465062444 3.0388953189002E-005 -20.6840004493153 5.16362509346359E-006 17.7688110203319 0.155113826931304 116.332781699553 
0.66             1.00000022561055 -0.943076834559513 2.62144084832599E-005 -23.4879375412726 6.1760136153075E-006 25.2768134217004 0.154839266980576 107.579300938475 
0.67             1.00000269004028 -0.957379458942603 2.31042924354883E-005 -27.3291275435411 7.59874425349067E-006 33.6059804050567 0.154095808497691 99.1279709020442 
0.68             1.00000584952669 -0.971743466542862 2.06029867133449E-005 -31.5113828315354 9.66660484328854E-006 43.8445750360992 0.15288325166437 90.9412932700695 
0.69             1.00000882377834 -0.986205107897536 1.85030145993182E-005 -35.6257654302189 1.27006486958233E-005 57.9803565214104 0.151219438784913 82.9872716379436 
0.7              1.00001026568622 -1.0007392575028 1.67059933942689E-005 -39.4317920754318 1.66384315232279E-005 79.2850063086525 0.149135137242867 75.2383235827673 
0.71             1.00000981216949 -1.01526293746859 1.51597679081454E-005 -42.7997389657171 1.91750824000909E-005 109.065595537979 0.146669706531583 67.6702394264581 
0.72             1.00000830807831 -1.02972311817657 1.38304261801998E-005 -45.6717649980193 1.74454235552553E-005 138.375401901869 0.143867395996863 60.2612554951669 
0.73             1.00000662398319 -1.04412191027775 1.26910403664009E-005 -48.0327111322595 1.4057944740989E-005 158.629087340157 0.140774172320234 52.9912703561117 
0.74             1.00000515254145 -1.05848054797539 1.17179371309874E-005 -49.8888390961815 1.1339170931985E-005 171.345920218459 0.13743500808934 45.841213212475  
0.75             1.00000397571552 -1.07281677449926 1.08898774107104E-005 -51.2532402520558 9.46773417732808E-006 179.720431890947 0.133891578121802 38.7925670412439 
0.76             1.00000306210806 -1.08714136971636 1.01880680410908E-005 -52.1361596283834 8.19380084897544E-006 -174.368803572927 0.1301803154412  31.8270516072664 
0.77             1.00000235686555 -1.10146022824006 9.59622159383861E-006 -52.5383939936887 7.31839740147879E-006 -169.948019233135 0.126330782436921 24.9264819509689 
0.78             1.00000181022647 -1.11577646581437 9.10043977988557E-006 -52.4461646060362 6.72056970504141E-006 -166.493073841688 0.122364324020252 18.0728364645677 
0.79             1.00000138328818 -1.13009171548279 8.68887686611589E-006 -51.8261765051261 6.33248043328856E-006 -163.701007377257 0.118292998633173 11.2485959283004 
0.8              1.00000104708239 -1.14440683076402 8.3511431598854E-006 -50.6198330546306 6.12199541619731E-006 -161.380739289493 0.114118841102152 4.43745097531404 
0.81             1.00000078032598 -1.15872225407633 8.07731805885129E-006 -48.7358232759728 6.08635566545029E-006 -159.395279083289 0.109833610320646 -2.37448219534413 
0.82             1.00000056735982 -1.1730382093537 7.85627096502347E-006 -46.0408183967128 6.25773789162005E-006 -157.62128225988 0.105419322293799 -9.1967585982234 
0.83             1.00000039656914 -1.18735480376422 7.67273206553426E-006 -42.3495677032469 6.73058852167077E-006 -155.898410539111 0.100850056401269 -16.0318199639858 
0.84             1.00000025924392 -1.20167208215589 7.50232010953394E-006 -37.4200964586884 7.75485185099849E-006 -153.907282479359 0.0960956997309929 -22.8711882198197 
0.85             1.00000014877323 -1.21599005656817 7.30415897841277E-006 -30.9703833307157 1.01265201274966E-005 -150.684790870509 0.0911283343250866 -29.690683780259 
0.86             1.00000006007772 -1.23030872237351 7.01390188466797E-006 -22.7518650430124 1.79676242661384E-005 -141.021586751429 0.0859316505812236 -36.4451154530581 
0.87             0.999999989208053 -1.24462806713506 6.54914429455668E-006 -12.7248039857763 4.16065948668964E-005 -43.1231867564367 0.0805128231362642 -43.0635381218473 
0.88             0.999999933058361 -1.25894807544183 5.84775165246947E-006 -1.30841600937614 9.62480720488877E-006 3.73002903522438 0.0749146389782838 -49.4469705445414 
0.89             0.999999889159638 -1.27326873149967 4.93175458337851E-006 10.5276882386421 4.372856253857E-006 7.93110843366508 0.0692238177499145 -55.4710675608955 
0.9              0.999999855529139 -1.28759002046322 3.9223850733852E-006 21.6028644104394 2.4608645490919E-006 6.91232942791467 0.0635706694609798 -60.9960998099526 
0.91             0.999999830559358 -1.30191192906201 2.96372321861117E-006 31.0662497891631 1.51471551260441E-006 3.01015808199171 0.0581169095183812 -65.8852267217367 
0.92             0.999999812935285 -1.3162344458344 2.14346462764391E-006 38.597006103317  9.78473171760777E-007 -3.97154251884319 0.0530327202194511 -70.0294249530005 
0.93             0.999999801572068 -1.33055756114852 1.48322787347153E-006 44.1993722298518 6.59293067403984E-007 -14.9952018649336 0.0484689485625684 -73.3741204105306 
0.94             0.999999795567581 -1.34488126711288 9.67648999231034E-007 47.8584766729784 4.76449889391438E-007 -30.8545505822211 0.044532691612961 -75.9396140500697 
0.95             0.999999794165975 -1.35920555743506 5.70175054199788E-007 49.0055392203092 3.89041273280903E-007 -50.1015200136494 0.0412731313433113 -77.8264490823945 
0.96             0.999999796729415 -1.37353042726125 2.66919300302363E-007 44.0687866387041 3.64539213299196E-007 -68.3470416460081 0.0386805410035791 -79.2001796041095 
0.97             0.999999802715972 -1.38785587301499 7.27931216712481E-008 -13.2977260582112 3.72569263853204E-007 -82.337722283588 0.0366970082717071 -80.2582817751128 
0.98             0.99999981166219 -1.40218189224421 1.81999091215289E-007 -93.0518655513946 3.92584560793733E-007 -92.0321925057388 0.0352341492427798 -81.1910811417423 
0.99             0.99999982316923 -1.41650848348119 3.21660793334843E-007 -101.365784877832 4.14593036325876E-007 -98.6250452404705 0.0341918715326739 -82.1512794738625 
1                0.999999836891788 -1.43083564611691 4.34678043514264E-007 -103.177927151103 4.34678044086948E-007 -103.177927150744 0.0334733940714523 -83.240420546695 
