! Touchstone file from project FYP_Sim_Actual_Separated_Ports
! Exported from HFSS 13.0.2
# GHZ S MA R 50.000000
! Terminal data exported
! Port[1] = PD1_Void_Port_T1
! Port[2] = Radiating_Plate_T1
0                0.999999919853508 0                1.15771581125736E-010 180              3.327737999961E-011 180              0.999141806142688 0                
0.01             0.999999999999873 -0.0144927419880613 1.62376541717046E-010 127.155801569221 3.98531822769953E-011 128.490027525055 0.998345512931681 -7.20177316713121 
0.02             1.00000007482182 -0.0289727943053401 2.52103629074032E-010 99.0073644484924 4.64345922518759E-011 87.0869824079971 0.996527734375313 -14.3208387623222 
0.03             1.00000007032391 -0.0434538446230675 3.38275010000567E-010 75.1333897407518 5.67327208632767E-011 12.6789069358404 0.994878471133302 -21.3849509832277 
0.04             1.00000004298139 -0.057936373980733 4.02879148967533E-010 34.3831703923858 2.19242741478659E-010 -51.0568650759084 0.993390052876089 -28.4167787091101 
0.05             1.0000000124265  -0.0724205793771039 8.71855912259472E-010 -55.1172061329019 8.95848843972535E-010 -83.160778267637 0.991957105178304 -35.4192336912545 
0.06             0.999999991248459 -0.0869071875646141 3.12943507086032E-009 -152.007838186308 3.57501570841416E-009 -135.603515462903 0.990547922635301 -42.389959799231 
0.07             0.999999988527805 -0.10139755659727 4.34882496025109E-009 148.713334745908 5.1553034381983E-009 151.547339136794 0.989176417372403 -49.3270150365227 
0.08             1.00000000567459 -0.115893816073928 6.44766752567478E-009 120.708718683261 6.12311727859082E-009 121.264565365428 0.987870295030601 -56.2303950134513 
0.09             1.00000002619945 -0.130398896281134 1.38183122309782E-008 84.2546160122864 1.16737458313068E-008 90.8092655990726 0.98665040710332 -63.1023363893616 
0.1              0.999999999972197 -0.144916078116805 1.4217454248868E-008 -10.8703980020588 1.41750896431333E-008 -10.6823716980586 0.985516741864889 -69.9472266262483 
0.11             1.00000053887066 -0.159393836450717 2.55065934474269E-008 -23.6812713042246 2.42140373578771E-008 -14.5815268223541 0.984392083798692 -76.7742928803048 
0.12             1.00000107214292 -0.17386870860387 3.76345747513548E-008 -29.0415768519689 3.55950011092337E-008 -17.468682539948 0.98330559422999 -83.5722771600764 
0.13             1.00000158206256 -0.18834118390217 5.05171551212018E-008 -32.0090842563867 4.84395288506318E-008 -20.0590802371057 0.982256757155342 -90.3455550935007 
0.14             1.00000204906444 -0.202812120502383 6.4353117996056E-008 -33.8897240055886 6.28976885416243E-008 -22.5806038869225 0.98123310774972 -97.0996146992437 
0.15             1.00000245164438 -0.217282871466308 7.9461758074135E-008 -35.2117571011134 7.91465459353852E-008 -25.1422971758967 0.980209344801734 -103.840970610861 
0.16             1.00000276559074 -0.231755476550914 9.62633000005708E-008 -36.2750677603694 9.7389978229145E-008 -27.8162152263388 0.979146686384752 -110.577077810232 
0.17             1.00000296142163 -0.246232991746281 1.15277591992629E-007 -37.3055071146959 1.17855283782234E-007 -30.6638013698422 0.977992416158478 -117.316250507104 
0.18             1.00000299713044 -0.260720125183846 1.37113656671748E-007 -38.5115898008291 1.40782162228282E-007 -33.7469352945157 0.976679563465977 -124.067590810705 
0.19             1.00000279772706 -0.275224592007797 1.62425035458249E-007 -40.1081623533614 1.66396830263321E-007 -37.1334316148175 0.975126658889418 -130.840930791405 
0.2              1.00000219183946 -0.289760246627521 1.91790836506638E-007 -42.3227508319478 1.9485936840516E-007 -40.8994066072725 0.973237507114227 -137.646790416859 
0.21             1.00000067607189 -0.304354518617104 2.25463224011331E-007 -45.3846938711725 2.2616665068647E-007 -45.128121696499 0.970900920674255 -144.496352616517 
0.22             0.999996272166131 -0.319057584913328 2.62929650430188E-007 -49.4895174011668 2.599904596283E-007 -49.9029635479132 0.967990362464067 -151.401455295315 
0.23             0.999979604338764 -0.333666466264532 3.02353487428247E-007 -54.7305634902388 2.95443127709481E-007 -55.2905094308086 0.964363454358796 -158.374598373293 
0.24             0.999973826515184 -0.346279912553466 3.40267897212728E-007 -61.0078823132765 3.30816571997196E-007 -61.3093503008592 0.959861328187518 -165.428961757863 
0.25             0.999993544346993 -0.360663608269727 3.72203625789094E-007 -67.9680366825604 3.63457344925741E-007 -67.8850043761253 0.954307829923046 -172.578427460902 
0.26             0.999998655916121 -0.375398243523718 3.94471789227615E-007 -75.0569883232348 3.90066464951621E-007 -74.8048753145035 0.94750864647923 -179.837595808766 
0.27             1.00000010053748 -0.390030898000769 4.0591734641736E-007 -81.6989549604763 4.07625790204692E-007 -81.7052262907439 0.93925051661294 172.778218072786 
0.28             1.00000051775414 -0.404606840306526 4.08052358635699E-007 -87.4832779529657 4.14644767945916E-007 -88.121516168755 0.929300822843346 165.253025313262 
0.29             1.00000056207585 -0.419154813712679 4.0369371756558E-007 -92.2325205208909 4.11881922036498E-007 -93.5937555326239 0.917408046740606 157.570263320525 
0.3              1.00000045256901 -0.433688583413031 3.95542635339289E-007 -95.9520306442371 4.01972212400846E-007 -97.7707555408306 0.903303803319046 149.712978298026 
0.31             1.00000028076671 -0.448215068857742 3.8553057140831E-007 -98.7411123093168 3.88342641799805E-007 -100.4610790792  0.886707431217902 141.664112497337 
0.32             1.00000009142306 -0.46273795546928 3.74790351949404E-007 -100.72315075169 3.74230957038899E-007 -101.628360896482 0.867334351808269 133.406911039327 
0.33             0.999999908877847 -0.47725928743863 3.63866115309735E-007 -102.006556273345 3.62211582947844E-007 -101.362201019595 0.844909523889951 124.925446068327 
0.34             0.999999747233713 -0.491780223822836 3.52934605348535E-007 -102.667321740061 3.54130070876407E-007 -99.8492889879707 0.819187158593965 116.205225543464 
0.35             0.999999614858068 -0.506301425052956 3.41969720372165E-007 -102.742008272366 3.51206259785415E-007 -97.3479367579436 0.789977230189776 107.233807686651 
0.36             0.999999516621172 -0.520823263202929 3.30853958966344E-007 -102.223557613508 3.54157208471499E-007 -94.1577760671825 0.757178054723338 98.0012814344615 
0.37             0.999999455126932 -0.535345942132725 3.19460254316806E-007 -101.055498822428 3.63300705399207E-007 -90.5806333665573 0.720812289599289 88.5004067395257 
0.38             0.999999431449019 -0.549869568722691 3.07731116915633E-007 -99.1219782582847 3.78649913704771E-007 -86.8801506414192 0.68106142697958 78.7261542799838 
0.39             0.999999445600263 -0.564394196255512 2.95786056137866E-007 -96.2326213955326 4.00009090195125E-007 -83.2535247728339 0.638291933901086 68.6743683838114 
0.4              0.999999496844916 -0.57891985133307 2.84099774124324E-007 -92.1051226720513 4.27064004307095E-007 -79.8231564882721 0.593065683992109 58.3393273330941 
0.41             0.99999958391045 -0.593446550790383 2.73812339405664E-007 -86.3608593605524 4.5945372092208E-007 -76.6455747611428 0.546129175389804 47.7101093657455 
0.42             0.999999705130161 -0.607974312418768 2.67236518764057E-007 -78.581425091356 4.96816185855546E-007 -73.7289845743338 0.498380401181969 36.7658921046242 
0.43             0.999999858534761 -0.62250316181117 2.68528257564054E-007 -68.5252640473771 5.38809533629618E-007 -71.0513979325018 0.450818018114604 25.4706162053971 
0.44             1.00000004190382 -0.637033136752584 2.8413383488156E-007 -56.5612913058006 5.85116992969973E-007 -68.5750089132243 0.404482441179488 13.7678692297683 
0.45             1.00000025278343 -0.651564290022007 3.22280749245056E-007 -43.9808060404684 6.35444730935154E-007 -66.2557439936858 0.360400332454483 1.57753507389389 
0.46             1.00000048847341 -0.666096691100413 3.91701338795932E-007 -32.5043539093032 6.89521172119131E-007 -64.048605434413 0.319541276678522 -11.2030193209975 
0.47             1.00000074598521 -0.680630427005245 5.01623657229563E-007 -23.2801362542844 7.47105485896048E-007 -61.909882178899 0.282788287658711 -24.6884537639242 
0.48             1.00000102197014 -0.695165602240963 6.64351813610192E-007 -16.5528885754077 8.08013488754633E-007 -59.7971781023227 0.250913449407311 -38.9787092623536 
0.49             1.00000131261632 -0.709702337628189 8.99941673080899E-007 -12.0502370148474 8.72172379012957E-007 -57.6679474973775 0.224539636063278 -54.1098914715453 
0.5              1.00000161351302 -0.724240767521413 1.24381883566058E-006 -9.3965650532204 9.39723445300324E-007 -55.4770702059085 0.204067096200953 -69.9879184098587 
0.51             1.00000191948186 -0.738781034625412 1.76232882157557E-006 -8.3164871354188 1.01120788447538E-006 -53.1741244039478 0.189564582342723 -86.3368668839748 
0.52             1.00000222437864 -0.753323281266062 2.59124373301038E-006 -8.73251890616964 1.08790175760067E-006 -50.7017455460348 0.180673618295143 -102.716825558071 
0.53             1.00000252087656 -0.767867635583856 4.05047406317757E-006 -10.9304706624396 1.17242128295405E-006 -47.9985429868171 0.176610415426966 -118.636225329517 
0.54             1.00000280025563 -0.782414190778568 7.08737613067127E-006 -16.2346519100471 1.26980192286319E-006 -45.0150130922283 0.176305360587806 -133.699745416023 
0.55             1.0000030522443  -0.796962975427149 1.58511932800438E-005 -31.4005768819699 1.38930967397961E-006 -41.7606956744416 0.178616376569455 -147.695097919223 
0.56             1.00000326499025 -0.811513913375056 3.76481749684381E-005 -106.381215604064 1.5469673749746E-006 -38.4125879938212 0.182507960152827 -160.585355050628 
0.57             1.00000342527514 -0.826066773319788 1.82157385492264E-005 -162.155899823129 1.76713012113244E-006 -35.4996760061442 0.187140180065045 -172.448168659172 
0.58             1.00000351912207 -0.840621111662794 1.19724602658612E-005 -175.141384913582 2.07643154563887E-006 -34.0512998546771 0.191880348925247 176.587081492054 
0.59             1.00000353295219 -0.855176218017603 9.74721448075492E-006 178.224771408003 2.47735937939531E-006 -35.3235816337596 0.196275187069497 166.381614559916 
0.6              1.00000345538708 -0.869731080497034 8.86971615914809E-006 173.318000775469 2.90781721697684E-006 -39.7778732464267 0.20001312882318 156.809014216769 
0.61             1.00000327962342 -0.884284395026949 8.68258665710638E-006 169.085077420269 3.2593059383284E-006 -46.2119056588698 0.202891357592869 147.763542358361 
0.62             1.00000300601239 -0.898834644030153 9.00487331098723E-006 165.242966301433 3.48041770765923E-006 -52.6649844717223 0.204791865247914 139.161293609594 
0.63             1.00000264413172 -0.9133802579578 9.8537723891259E-006 161.810933275841 3.6081205647188E-006 -58.0216646557254 0.205665857502237 130.937971774338 
0.64             1.00000221344068 -0.927919845070805 1.14208013245325E-005 159.057216367892 3.69964904996496E-006 -62.2041786041632 0.205523915016045 123.045120536147 
0.65             1.00000174180306 -0.942452438320862 1.42021759522365E-005 157.676845523425 3.79113459956919E-006 -65.5506159622534 0.204428753810723 115.445538408661 
0.66             1.00000126184186 -0.956977683601291 1.94629748246062E-005 159.513106714415 3.89868389968807E-006 -68.4171028512034 0.202487412612888 108.108136459048 
0.67             1.00000080599168 -0.971495902513729 3.05721859376522E-005 170.583208651377 4.02795844612409E-006 -71.0715553607923 0.199840027664078 101.002454024255 
0.68             1.00000040171275 -0.986008007723326 4.64492633584097E-005 -150.917205824729 4.18019309576929E-006 -73.6987722178274 0.19664315406715 94.0933185529452 
0.69             1.00000006822619 -1.00051530596236 3.35261088386747E-005 -106.947524399504 4.35484183358527E-006 -76.4260903351099 0.193047134961681 87.3366247257119 
0.7              0.999999815407513 -1.01501925950991 2.08976453845183E-005 -92.9407307397933 4.55048251672999E-006 -79.3446657160731 0.189169571373434 80.6777127992368 
0.71             0.99999964461644 -1.029521275523  1.48861867850615E-005 -90.2297743202619 4.76493251118546E-006 -82.5231726789574 0.185070378640251 74.0539360357704 
0.72             0.99999955070632 -1.04402256396206 1.16599114782743E-005 -91.3330741942671 4.99500165257254E-006 -86.0153849182779 0.180737092626737 67.402187736229  
0.73             0.999999524383482 -1.05852407117607 9.71171799923842E-006 -94.0414089992804 5.23607440418232E-006 -89.8632835016871 0.176089542795557 60.6701924565282 
0.74             0.999999554321684 -1.07302647365174 8.435156759692E-006 -97.5305306712651 5.48164656277518E-006 -94.096793102031 0.171008053557876 53.8279661079357 
0.75             0.999999628750788 -1.08753020866429 7.54923453033128E-006 -101.432430008368 5.7229635223323E-006 -98.7309052526142 0.165379052215733 46.8746766859416 
0.76             0.999999736482098 -1.10203552106856 6.90771981205316E-006 -105.562172538735 5.94896784054496E-006 -103.761007718569 0.159141636944071 39.8375933828527 
0.77             0.999999867463777 -1.11654251207766 6.42737637979072E-006 -109.819299018882 6.14680616394074E-006 -109.157700954476 0.152316272092301 32.763437015101  
0.78             1.00000001300075 -1.13105118240644 6.05737620038075E-006 -114.146141696005 6.30308642136394E-006 -114.863049863659 0.145005559420804 25.7058829366035 
0.79             1.00000016576359 -1.14556146688166 5.76487954061426E-006 -118.507912702849 6.40584077203097E-006 -120.790609230576 0.137371055684405 18.7139930633251 
0.8              1.00000031968146 -1.16007326038855 5.52767079220983E-006 -122.882260520014 6.44676612230942E-006 -126.831019472779 0.129599511008734 11.8247937801196 
0.81             1.00000046978325 -1.17458643632357 5.33015159932345E-006 -127.253415457536 6.42299079274389E-006 -132.863179293656 0.121872055720494 5.06069054782109 
0.82             1.00000061202597 -1.18910085912479 5.16104824255814E-006 -131.608784537757 6.33764655223211E-006 -138.768590994667 0.114343814720325 -1.56942111354499 
0.83             1.00000074313161 -1.20361639239287 5.01204560007876E-006 -135.936973629026 6.19900162425107E-006 -144.444896326217 0.107134871850105 -8.06707060853719 
0.84             1.00000086044241 -1.21813290386992 4.87694437341636E-006 -140.226707387166 6.01854866274912E-006 -149.815002872538 0.100329738821298 -14.4405805495188 
0.85             1.00000096179782 -1.23265026825818 4.75112278179465E-006 -144.466346874301 5.80880891635324E-006 -154.830252353055 0.0939816227716296 -20.7017335151728 
0.86             1.00000104543273 -1.24716836860138 4.6311780644147E-006 -148.643814682047 5.58153010677782E-006 -159.468383753095 0.088118528311831 -26.8630865889313 
0.87             1.00000110989479 -1.26168709674228 4.51467420620022E-006 -152.746791132725 5.34659743709025E-006 -163.728353916926 0.0827493789012684 -32.9359859848863 
0.88             1.00000115397816 -1.27620635321045 4.39995187536818E-006 -156.763073166988 5.11163118037119E-006 -167.624152386618 0.0778692940915225 -38.929205540168 
0.89             1.00000117667089 -1.29072604677895 4.28597477100974E-006 -160.681005675215 4.88206444335956E-006 -171.179092664002 0.0734637639038041 -44.8481046636827 
0.9              1.00000117711335 -1.30524609384667 4.17219825262888E-006 -164.489911370872 4.66147197182057E-006 -174.421282539331 0.0695117762269596 -50.6942165875856 
0.91             1.00000115456553 -1.31976641774687 4.05845358715318E-006 -168.180463093683 4.45197827471974E-006 -177.380404540073 0.0659880810212918 -56.4652015388049 
0.92             1.00000110838147 -1.33428694804401 3.94484561288747E-006 -171.744961776961 4.25464550244144E-006 179.91436414701  0.0628648013788257 -62.155114789199 
0.93             1.00000103798919 -1.34880761985589 3.83166386614523E-006 -175.177502557409 4.06979746145376E-006 177.435564397879 0.0601125803993506 -67.7549413604488 
0.94             1.00000094287498 -1.36332837322137 3.7193078959279E-006 -178.474028463387 3.89726997610951E-006 175.158064686888 0.0577014142660285 -73.2533396299571 
0.95             1.00000082257127 -1.37784915252315 3.60822720246171E-006 178.36771596759  3.73659432695438E-006 173.059280389199 0.0556012806722611 -78.6375214683522 
0.96             1.00000067664695 -1.39236990596889 3.49887549409387E-006 175.348310742088 3.58712638893506E-006 171.119157597631 0.0537826347068309 -83.8941844773645 
0.97             1.00000050470001 -1.40689058512943 3.39167815392222E-006 172.466842383137 3.44813454312056E-006 169.32002633551  0.0522168144191121 -89.0104088262588 
0.98             1.00000030635167 -1.42141114453121 3.28701118155749E-006 169.721118519326 3.31885762324913E-006 167.646390492054 0.0508763766004387 -93.9744402814938 
0.99             1.00000008124187 -1.43593154129822 3.1851895265104E-006 167.107894796632 3.19854175090557E-006 166.084695593219 0.0497353696748914 -98.7763013475034 
1                0.999999829025695 -1.45045173483892 3.08646265551835E-006 164.623098150119 3.08646265555947E-006 164.623098149832 0.0487695439238221 -103.408199610611 
