! Touchstone file from project FYP_Sim_Actual_Separated_Ports
! Exported from HFSS 13.0.2
# GHZ S MA R 50.000000
! Terminal data exported
! Port[1] = PD1_Void_Port_T1
! Port[2] = Radiating_Plate_T1
0                0.999999993782694 0                4.88421569647514E-010 0                9.28745849978977E-011 180              0.999134262046937 0                
0.01             1.00000000006291 -0.0134176951052496 1.52720698675171E-009 -77.3125844336986 7.54879030209181E-011 146.393084548909 0.99833432539803 -7.2436168491188 
0.02             1.00000002288499 -0.0268354218611446 3.2938932974602E-009 -94.2725104716216 9.92768883239962E-011 67.5053094266954 0.996505626908616 -14.403748321091 
0.03             1.00000007775637 -0.0402518854542079 6.46823639324063E-009 -110.90672948738 3.06206551316114E-010 29.7994911765133 0.994844859221413 -21.5077771237377 
0.04             1.00000008306254 -0.0536639411351852 1.86932571713891E-008 -167.112950248478 7.91365776383265E-010 13.4095809547253 0.99334619230001 -28.5781091122417 
0.05             1.00000001394233 -0.0670812317692767 5.16225011122203E-009 51.8540344775734 1.91966593309286E-009 -4.01872341746232 0.991905197672266 -35.6173877575201 
0.06             0.9999999934409  -0.0805009537427411 4.15730560850812E-009 -46.4967930774588 4.41960456481044E-009 -34.7707062120145 0.9904911037845  -42.6230403539019 
0.07             0.999999991758959 -0.0939208529613694 7.82202018805614E-009 -81.660462878803 7.11622789116397E-009 -78.9748655571977 0.989118454621726 -49.592995251296 
0.08             0.999999995295411 -0.107341103166665 1.34418555064624E-008 -105.126847678151 8.70986276643425E-009 -111.135544571359 0.987814854982739 -56.5272135459991 
0.09             1.00000000006707 -0.120761935132744 2.12151374703488E-008 -137.441843370845 1.26265618994119E-008 -138.330373647571 0.986599950221519 -63.4279864613253 
0.1              1.00000000441278 -0.134183515504331 2.34249461359544E-008 -179.867396703944 1.95849315569146E-008 159.339295596733 0.985471120290152 -70.2998302175693 
0.11             0.999997766087238 -0.146923115777008 1.56245956686667E-008 -104.699515988295 2.419928044481E-008 -143.655905945264 0.984320416463516 -77.1496948454395 
0.12             0.999999144543066 -0.160356117443429 3.43544363169833E-008 -63.9320346315194 3.93569600981228E-008 -114.407423261488 0.983215231929173 -83.9681941005504 
0.13             0.999999598441836 -0.17381730455864 5.79297077907009E-008 -53.9784593116451 5.77407360988876E-008 -98.5808157104357 0.982154348999732 -90.7598526711035 
0.14             0.9999997941404  -0.187278261647744 8.22908236965209E-008 -49.608296512503 7.76931878446783E-008 -87.3580395220086 0.981124114062877 -97.5303114178622 
0.15             0.9999998904114  -0.200735671983412 1.06961638673723E-007 -46.7357855166938 9.89691786739796E-008 -78.0084457580454 0.980097767711178 -104.286228599561 
0.16             0.999999941237095 -0.214189304804927 1.31895487912361E-007 -44.2236489296839 1.21664262065243E-007 -69.4738913545209 0.979035047231405 -111.035184142692 
0.17             0.999999969069829 -0.227639513550795 1.57168849039277E-007 -41.5966598452368 1.45990637631098E-007 -61.2320889140936 0.977881988511948 -117.785592975781 
0.18             0.999999984501676 -0.241086744130101 1.82925810237282E-007 -38.5750502051341 1.72205024550035E-007 -52.9624827779149 0.976570850354217 -124.546632084372 
0.19             0.999999992972277 -0.254531416349211 2.09367284209529E-007 -34.9328260511723 2.00560244856646E-007 -44.4259934643996 0.975020083498741 -131.328184538168 
0.2              0.999999997447279 -0.267973897211279 2.36749321593565E-007 -30.4375341465834 2.31239721903563E-007 -35.4142123683518 0.973134268372811 -138.140802290611 
0.21             0.999999999614103 -0.281414499899883 2.65372050979204E-007 -24.8137527981348 2.64246138649601E-007 -25.7265799317537 0.970803949687115 -144.995688005166 
0.22             1.00000000046198 -0.294853489793871 2.95527647048986E-007 -17.7139702514018 2.99215539200971E-007 -15.1637084429278 0.967905303924988 -151.904694442598 
0.23             1.00000000058186 -0.30829109175108 3.27335636166192E-007 -8.69657108704925 3.35141598838006E-007 -3.53618544900557 0.964299590351006 -158.880337954363 
0.24             1.00000000032964 -0.321727496877503 3.60320850454852E-007 2.77126245823445 3.70057639153992E-007 9.30723068578925 0.959832361926045 -165.935820274601 
0.25             0.99999999991856 -0.335162868319022 3.92552780366582E-007 17.2335865870963 4.00875068251362E-007 23.4308824219483 0.954332455661385 -173.085050017409 
0.26             0.999999999473482 -0.348597346057134 4.19556105785076E-007 34.9932595516429 4.23760542928112E-007 38.757541667486  0.947610850235649 179.657347941684 
0.27             0.999999999063532 -0.362031050827345 4.34702177865045E-007 55.6488211714532 4.35340499938165E-007 55.0480541469237 0.939459580838086 172.276050581296 
0.28             0.999999998722294 -0.375464087306679 4.33594489165079E-007 77.7490359729369 4.34310925772734E-007 71.9601644253395 0.9296510452812  164.755101303064 
0.29             0.999999998460524 -0.388896546706842 4.19115632163033E-007 99.1977857516144 4.22259221927538E-007 89.1790049707265 0.917938225684534 157.078042844262 
0.3              0.999999998274306 -0.40232850888917 3.98973230481263E-007 118.235909383185 4.02981947986071E-007 106.540800179653 0.90405658096244 149.228141556393 
0.31             0.999999998150379 -0.415760044096212 3.78949035763071E-007 133.978634103053 3.81002455149115E-007 124.073413025622 0.887728612302951 141.1887235597   
0.32             0.999999998069669 -0.429191214376166 3.60548574994699E-007 146.254651865405 3.60461503306514E-007 141.946938517637 0.868672310345122 132.943634514587 
0.33             0.999999998009691 -0.442622074760932 3.4254209403094E-007 155.223225384    3.44795662701694E-007 160.374041949709 0.846614757824195 124.477816512995 
0.34             0.99999999794622 -0.456052674246269 3.22731313198696E-007 161.057931361151 3.3691456172799E-007 179.499061371011 0.821311935408013 115.777964780967 
0.35             0.9999999978545  -0.469483056612916 2.98903448549949E-007 163.701809908268 3.3948716126945E-007 -160.687714531088 0.792575083918762 106.833182038666 
0.36             0.99999999771018 -0.482913261120053 2.69493026066398E-007 162.571862014467 3.55157496507688E-007 -140.36161844437 0.760302674389841 97.6354921122331 
0.37             0.999999997490088 -0.496343323096818 2.35047932280553E-007 155.987545652667 3.86736464303882E-007 -119.768273603394 0.724515150288463 88.1800162012498 
0.38             0.999999997172939 -0.509773274453322 2.03105237590117E-007 140.254519641273 4.37502883080683E-007 -99.0635161062006 0.685387464704803 78.4645728118862 
0.39             0.999999996740037 -0.523203144129573 2.00035752902291E-007 112.159944953435 5.11600701139183E-007 -78.1889507726332 0.643272759414089 68.4884593808316 
0.4              0.999999996176051 -0.536632958498624 2.66761569289729E-007 82.0408424643072 6.14150327813562E-007 -56.8451198641688 0.59871029838886 58.25023166809   
0.41             0.999999995469884 -0.550062741739221 4.17322197093509E-007 62.0591929963256 7.50083595668874E-007 -34.5579153572312 0.552412773326853 47.7444246317453 
0.42             0.999999994615722 -0.563492516192938 6.53458345218987E-007 49.7262099493698 9.19932651327441E-007 -10.8448550813819 0.505232359625624 36.9573451007826 
0.43             0.999999993614305 -0.576922302721606 9.91213278518678E-007 40.7690931417137 1.11177960804964E-006 14.4563635797726 0.458110281745328 25.8622931015788 
0.44             0.9999999924745  -0.590352121082605 1.46155452329436E-006 32.8246784627028 1.29669076089863E-006 40.7485379720429 0.412019136870736 14.4148420469304 
0.45             0.99999999121525 -0.603781990342809 2.10731899414771E-006 24.54712008955   1.44380587699778E-006 66.61067419739   0.367908864072116 2.54921073546018 
0.46             0.999999989868029 -0.617211929356764 2.97398801195348E-006 15.0040807179037 1.54693576610608E-006 90.5416929086482 0.326665090827856 -9.82251522745057 
0.47             0.999999988479903 -0.630641957341862 4.07985032985123E-006 3.52328949596548 1.62601914149393E-006 111.78347879518  0.2890830083024  -22.8052628794667 
0.48             0.999999987117399 -0.644072094593411 5.35533794679303E-006 -10.098790943686 1.7068321196399E-006 130.365321911925 0.255852127570486 -36.5050818960984 
0.49             0.999999985871379 -0.657502363396996 6.60020344008808E-006 -25.1859574614218 1.80886819602468E-006 146.701372268867 0.227538991199994 -50.9965572315514 
0.5              0.999999984863189 -0.670932789215999 7.58094752717439E-006 -40.2015871566029 1.94541929168834E-006 161.285739702785 0.204549752605386 -66.2714110687946 
0.51             0.999999984252423 -0.684363402261097 8.21844164912117E-006 -53.6404578112942 2.12722941028425E-006 174.577275990397 0.187060611077612 -82.1811299210856 
0.52             0.999999984246736 -0.697794239589686 8.60555049642763E-006 -64.8551984490241 2.3655800474058E-006 -173.014909117594 0.174931073278727 -98.4105630493452 
0.53             0.999999985114175 -0.711225347941718 8.87671822654871E-006 -73.9815591234368 2.67433832893142E-006 -161.11084090301 0.167654210485266 -114.525352440842 
0.54             0.999999987198646 -0.724656787601972 9.12759651863777E-006 -81.4734017285075 3.07112400612384E-006 -149.329719686553 0.16440486237124 -130.090109989158 
0.55             0.999999990939127 -0.738088637698415 9.40944481094695E-006 -87.8015452066134 3.57703795927316E-006 -137.258957049827 0.164187449619351 -144.788105610411 
0.56             0.999999996893181 -0.751521003517545 9.74516760758719E-006 -93.3544459899943 4.2126437637882E-006 -124.430731245067 0.166011843234194 -158.471808135899 
0.57             1.00000000576505 -0.764954026662164 1.01419622019679E-005 -98.43085567951  4.98470966606059E-006 -110.33212395705 0.169019746129953 -171.138923325601 
0.58             1.00000001843778 -0.778387899223777 1.05975940292498E-005 -103.25695433342 5.85607720312168E-006 -94.5144636376453 0.172536372619434 177.123899333231 
0.59             1.00000003600711 -0.791822883625543 1.11024298797675E-005 -108.003245447011 6.7053656888131E-006 -76.8915453134621 0.176066943168729 166.192216527855 
0.6              1.0000000598111  -0.805259340446209 1.16392420724306E-005 -112.794760066636 7.33593982562863E-006 -58.143476677849 0.179267712693868 155.936471713164 
0.61             1.00000009144225 -0.81869776736901 1.21822642428984E-005 -117.714036529261 7.60372856109474E-006 -39.6985910594583 0.18191200991796 146.238254302103 
0.62             1.00000013271515 -0.832138853329708 1.26968765456495E-005 -122.798392544323 7.54445553097772E-006 -22.9478309675197 0.183860640405086 136.996218292194 
0.63             1.00000018553782 -0.845583552632961 1.31413779139246E-005 -128.034562672925 7.31511442798844E-006 -8.50679069063846 0.185039128465937 128.126656019962 
0.64             1.00000025159241 -0.859033183324763 1.34719649815043E-005 -133.355487093871 7.06057809057784E-006 3.74231112737645 0.185421227085429 119.561747514979 
0.65             1.00000033166573 -0.872489550157103 1.36507014713518E-005 -138.644809711701 6.86512886610172E-006 14.2427125138837 0.185017200080039 111.247036709657 
0.66             1.00000042438981 -0.885955080077165 1.3654126699538E-005 -143.752602887604 6.76877299620052E-006 23.4846672538453 0.183865367055853 103.138837139939 
0.67             1.00000052411553 -0.89943292792516 1.34787322648012E-005 -148.520542675262 6.79228198071652E-006 31.9129253187485 0.182025693489946 95.2018423026262 
0.68             1.00000061783929 -0.912926948300925 1.3140568904716E-005 -152.809121903936 6.95380580876999E-006 39.9310617343682 0.179574554117351 87.4070227808998 
0.69             1.00000068197533 -0.926441329092497 1.26694180893037E-005 -156.517979314916 7.27885546768038E-006 47.946061924694  0.176600107684028 79.7298160356317 
0.7              1.0000006819119  -0.93997958191569 1.2100694165133E-005 -159.594322984929 7.80726258131996E-006 56.4401657127039 0.173197967005913 72.148591854327  
0.71             1.00000058035318 -0.953542648005674 1.14685024361907E-005 -162.030301082676 8.59663990804191E-006 66.0835490352903 0.169467023636495 64.6433757611003 
0.72             1.00000036021701 -0.967126407015625 1.08015839129176E-005 -163.853800623014 9.70795564055297E-006 77.9104361672687 0.165505393515817 57.19482086113   
0.73             1.00000005564749 -0.980719946709241 1.01220435602113E-005 -165.117359192633 1.1109191144125E-005 93.496892246261  0.161406497699672 49.7834316346166 
0.74             0.999999761802032 -0.994306656573001 9.44586062008857E-006 -165.888157564325 1.23457520468258E-005 114.520470293561 0.157255297115925 42.3890618869398 
0.75             0.999999593623208 -1.00786896421792 8.78415168346239E-006 -166.24022188104 1.22824539736426E-005 140.05410717092  0.153124687044843 34.9907360326367 
0.76             0.999999614726253 -1.02139455559362 8.14450553168156E-006 -166.248827619117 1.0519560436839E-005 164.363395587003 0.149072059074759 27.5668799011701 
0.77             0.99999980272393 -1.03488019716808 7.53206978959919E-006 -165.986662469068 8.27650405033038E-006 -177.052079087871 0.145136096992518 20.0960913948164 
0.78             1.00000007917141 -1.04833101260914 6.95031092235026E-006 -165.521278647404 6.42709562914189E-006 -163.891312899701 0.141334032932364 12.5586191385416 
0.79             1.00000036338645 -1.0617565738611 6.40149104878763E-006 -164.913486027454 5.07414583080891E-006 -154.393516254469 0.137659881697198 4.93871704673027 
0.8              1.00000060392146 -1.07516684428713 5.88694652419888E-006 -164.216461631404 4.09826037260079E-006 -147.209836206852 0.134084569335205 -2.77205048201234 
0.81             1.00000078081871 -1.08856984882164 5.40725104392189E-006 -163.475428443278 3.3820113461906E-006 -141.51792539146 0.13055922496859 -10.5707325638357 
0.82             1.00000089454709 -1.10197108729458 4.96232522861518E-006 -162.727788565819 2.84326374950349E-006 -136.829308735377 0.127022870902752 -18.4387774205167 
0.83             1.00000095478758 -1.11537389434155 4.55153016852828E-006 -162.003602245438 2.42811503021556E-006 -132.845873653109 0.123414858489349 -26.3388782044671 
0.84             1.00000097341793 -1.12878006488772 4.1737619118338E-006 -161.326304587369 2.10117903693238E-006 -129.37829192464 0.11969041993837 -34.2144648350569 
0.85             1.00000096124168 -1.14219041424111 3.82755020048989E-006 -160.713557274467 1.83877499300281E-006 -126.301378482631 0.115835228884364 -41.9931868253735 
0.86             1.00000092693209 -1.15560518243142 3.51115768731442E-006 -160.178146390859 1.62466748819728E-006 -123.529231920936 0.11187352675934 -49.5945814209737 
0.87             1.00000087700781 -1.16902429582366 3.22267372373436E-006 -159.728857325005 1.44745120514905E-006 -121.000925811466 0.107865883512837 -56.9403905721036 
0.88             1.00000081618018 -1.18244752539408 2.96009756419836E-006 -159.37127957119 1.29892887607981E-006 -118.671969806932 0.103896912584989 -63.9646617724976 
0.89             1.0000007477679  -1.19587457786255 2.72140780447763E-006 -159.108514399686 1.17308497435604E-006 -116.509032667617 0.100057695753388 -70.6207791383927 
0.9              1.00000067406391 -1.20930514575645 2.50461695706206E-006 -158.94177461408 1.06542137510593E-006 -114.48657386083 0.0964293274764252 -76.8839484840275 
0.91             1.00000059662461 -1.22273893331522 2.30781171682356E-006 -158.870877229792 9.72517383074027E-007 -112.584629180667 0.0930721892693269 -82.7494755851912 
0.92             1.00000051648554 -1.23617566860673 2.12918052169916E-006 -158.894637204605 8.91731933626022E-007 -110.787315740236 0.0900221759856532 -88.2283922553339 
0.93             1.0000004343172  -1.24961510801093 1.9670305204396E-006 -159.011174176309 8.20997888356768E-007 -109.081798082818 0.087292409731961 -93.3422165770924 
0.94             1.00000035053589 -1.26305703664285 1.81979616316257E-006 -159.218145498658 7.58677257176688E-007 -107.457557482055 0.0848779645238265 -98.118166954209 
0.95             1.00000026538175 -1.27650126674976 1.68604148023458E-006 -159.512918605467 7.03457532940256E-007 -105.905865257519 0.0827614269987176 -102.585480132106 
0.96             1.00000017897338 -1.28994763521813 1.56445783370582E-006 -159.892694572257 6.54276283666501E-007 -104.41939629624 0.0809179414248496 -106.772948780179 
0.97             1.00000009134607 -1.30339600080753 1.45385859934737E-006 -160.354593178944 6.1026550046407E-007 -102.991940799983 0.0793191583179437 -110.707497501459 
0.98             1.00000000247846 -1.31684624143182 1.35317191925555E-006 -160.895708122627 5.70709976253393E-007 -101.618186069767 0.0779360095706516 -114.413515775093 
0.99             0.999999912311128 -1.33029825164169 1.26143238278344E-006 -161.513139470216 5.35015795212698E-007 -100.293549041573 0.0767404790587001 -117.912679931545 
1                0.999999820759576 -1.34375194037029 1.17777225817378E-006 -162.204009067414 5.02686206607098E-007 -99.0140461483748 0.075706613060492 -121.224055798972 
