! Touchstone file from project FYP_Sim_Actual_Separated_Ports
! Exported from HFSS 13.0.2
# GHZ Z MA R 50.000000
! Terminal data exported
! Port[1] = PD1_Void_Port_T1
! Port[2] = Radiating_Plate_T1
0                568836.430603763 -89.9997685224806 0.00328156646647549 155.019168740947 0.000381050621080278 -36.2424145689833 1189.9709348838  -89.2585943715168 
0.01             378979.507803533 -89.9999229704661 0.00184073441142911 148.706354194391 0.000202867213690562 -49.3303322819179 793.628781842469 -89.2451351413501 
0.02             189485.620350464 -90.0003056946457 0.000784925688112174 136.546470838529 8.35969461559867E-005 -92.8785328439354 397.545577391689 -89.1964624536892 
0.03             126316.004466874 -90.0009292432306 0.000629479831537677 149.875006246477 7.18230591265877E-005 -124.191372817434 264.498699397929 -89.1953427005966 
0.04             94701.1733847729 -90.0075045319073 0.000330168465422183 -172.10230947292 7.82501073933502E-005 -149.68104514113 197.242523377638 -89.2029417612389 
0.05             75823.4804238599 -90.0006855051565 0.00012563655249842 -177.824038980292 9.02669074525353E-005 -176.368350580725 156.392913456257 -89.2021243004104 
0.06             63173.698436753  -89.9999326857403 8.36258212264742E-005 151.711243901443 9.63885673463169E-005 154.650125234007 128.786321419551 -89.1925270575571 
0.07             54145.8190652123 -89.9999694059091 8.37803389169131E-005 127.01129909573  9.27681525415847E-005 128.839560951295 108.758910305784 -89.1769379515375 
0.08             47376.0117136526 -90.0000064276767 9.38675803787145E-005 107.162953527    8.90210374018119E-005 108.120067958308 93.467963606239  -89.1575537189702 
0.09             42110.8968191782 -90.0000168116541 0.00010438076270298 84.6041598068912 9.24089394601712E-005 87.3915215280192 81.3287054414314 -89.1351299658776 
0.1              37898.8878713923 -89.9999992079481 0.000101275880639368 57.2323904129807 9.96525758136607E-005 56.5355922672404 71.3871414639567 -89.1087221398665 
0.11             34460.4273078917 -90.0059213084989 0.000303391793835449 28.7027224172613 0.000216459392302774 42.621364952222  63.0340363177293 -89.0709338467247 
0.12             31593.3056484979 -90.0097108250354 0.00045734724899664 26.4677877964078 0.000310656272496346 41.2659873927475 55.8780232824823 -89.0252497246206 
0.13             29166.0029642142 -90.0120804936112 0.000566060814129986 27.3414352665661 0.000385536445461352 42.210942848796  49.634029892214  -88.97003762897  
0.14             27084.486655754  -90.0134771854614 0.000640290964912655 29.3841324942184 0.00044552003224829 44.0064070893198 44.0973674815477 -88.9023248305362 
0.15             25279.7327863602 -90.0141809653624 0.000687647315699043 32.1592604178896 0.000493642017554765 46.255035040041  39.1168119875804 -88.8174047880511 
0.16             23699.9183014644 -90.0143588267146 0.00071324957011394 35.5614350059308 0.000531795371220472 48.8270154086997 34.5777518854654 -88.7081125371176 
0.17             22305.3593401409 -90.0140872436202 0.000720423952429344 39.6163127551724 0.000560976698550121 51.6973140673732 30.391254757801  -88.5635471132331 
0.18             21065.1223714845 -90.0133419486596 0.000711177378855535 44.4433875874    0.000581409595738327 54.9048917289507 26.4867497728501 -88.3667768829547 
0.19             19954.6769361396 -90.0119238228326 0.000686536390273772 50.2763129734768 0.000592551438587008 58.5531566315548 22.8069991578432 -88.0905201176695 
0.2              18954.1831599282 -90.0091852888095 0.00064689555336654 57.5378342527236 0.000592987813636496 62.8415539803668 19.3045801497243 -87.6884419775597 
0.21             18047.0752633954 -90.0028881016058 0.000592694208003247 67.0174339773867 0.000580223722792518 68.150521500608  15.9394468744266 -87.0759397226542 
0.22             17218.6054446245 -89.9826047318145 0.000526404078468261 80.2803097028415 0.000550496596083755 75.2642911874795 12.6774646281917 -86.0821093658228 
0.23             16463.8224196143 -89.8817717883778 0.000459405702361091 100.476475172537 0.000499788581897398 86.0409526744171 9.4904929471066  -84.3064683200985 
0.24             15828.3057121292 -89.8903998738194 0.00043212245241077 131.582795282399 0.000432144902512671 105.072630381346 6.36177885269434 -80.5573559428556 
0.25             15189.7910364495 -89.9757369374421 0.000525117532898981 169.762609174737 0.00040177083661938 143.40267075256  3.32942757592787 -69.2635440828372 
0.26             14599.5657572713 -89.9947447142808 0.000810137004063938 -158.067458617528 0.000642641066578762 -166.539462914103 1.35686181627495 3.03903079381779 
0.27             14055.4192207015 -90.0008646765324 0.00132878153413435 -132.950771791175 0.00146989125874565 -131.828986284974 3.67163778997449 64.4644267056397 
0.28             13551.2317911558 -90.0033268554635 0.00215645434922919 -109.018164213524 0.00350570741210627 -96.4207792047787 6.90352775495405 74.2257923465418 
0.29             13082.3578738712 -90.0043857819395 0.00331990591661876 -80.9385990920955 0.00579765017777529 -40.1631720904645 10.3507176347837 77.406773609979  
0.3              12645.0409454088 -90.0047954882184 0.00438885019506299 -46.7880675087105 0.00498688587458012 -0.246508853687482 14.0037964252255 78.6726340964809 
0.31             12236.1175101705 -90.0048657364984 0.00460703391795357 -13.0817895757468 0.00417751505610153 16.170176162377  17.90736969781   79.0640667113011 
0.32             11852.8675268522 -90.0047430942594 0.00420061663746602 13.5620377265589 0.00379802960121321 23.4260528872839 22.1273485564772 78.9186764226742 
0.33             11492.9240272897 -90.0045043167695 0.00370060182201879 34.3441909569178 0.00366005840816517 26.2732904433162 26.7495611008281 78.3545767712475 
0.34             11154.2107889492 -90.004192691784 0.00326981391301364 52.6769810045885 0.00367728004964964 26.1143464257159 31.8839224897643 77.3940923163009 
0.35             10834.8957334595 -90.0038339598753 0.00292692723443589 71.6035873378196 0.00382779388353342 23.2554429981342 37.6707721981049 76.0009497320869 
0.36             10533.3543807252 -90.0034439550233 0.00271125571555495 94.103849737057  0.0041347489917802 17.5404417899354 44.2876128031716 74.0882530513662 
0.37             10248.1403472249 -90.0030325435785 0.00278777658680178 122.186604787038 0.00467599759495651 8.63584332895534 51.9520575325004 71.5124818215901 
0.38             9977.96108376376 -90.0026057709748 0.00351509922521556 152.325681973762 0.00562070336177556 -3.69479971127861 60.9089644806072 68.0585020286063 
0.39             9721.65766576868 -90.0021670804238 0.005348822347607 176.728191314399 0.00729857694823994 -19.3234361361342 71.3699785954985 63.4207720794396 
0.4              9478.18780140017 -90.0017180227295 0.00884703393111281 -166.905647663194 0.010307212818707 -37.8041636898115 83.3325003992178 57.197677698643  
0.41             9246.61144254997 -90.0012586741879 0.0149356553742896 -156.580567193332 0.015651940770218 -58.9275640339892 96.1586597673762 48.9504574416463 
0.42             9026.07853143226 -90.0007878851223 0.0250622195593724 -149.799750321768 0.0248315877250035 -83.2566976923297 107.917552446063 38.4333555288232 
0.43             8815.81852095735 -90.0003034414917 0.0409231410723398 -143.443687926281 0.039450273021135 -112.095454915356 115.236654820086 26.0525553482526 
0.44             8615.13138751439 -89.9998022260796 0.0628072121506709 -132.695676579764 0.0588706252521532 -147.008960477213 115.191710740656 13.176302242038  
0.45             8423.37992016042 -89.9992805589754 0.0828697708546392 -112.902266667345 0.0739380738849935 172.805843184877 108.160723728686 1.57546131212814 
0.46             8239.98310363262 -89.9987349852705 0.0835967510973938 -88.4571702528138 0.0729258364569917 135.503904725347 97.3631205656985 -7.62182087385411 
0.47             8064.41044244509 -89.9981637575819 0.0697133908989278 -69.6408911928588 0.0628807519174569 108.30559469821  85.9047178905585 -14.2222323946116 
0.48             7896.17716493838 -89.9975706354306 0.0562319754086043 -57.5267854460282 0.0534375334723212 90.0217539454976 75.4221628875626 -18.5444772547976 
0.49             7734.84007411242 -89.9969733431578 0.0466562601032028 -49.2723735300591 0.0467364255716113 77.3938777927658 66.4343695726711 -21.0127740910262 
0.5              7579.99348291871 -89.9964206965679 0.0402164796229347 -43.0133372635088 0.0423794830722231 68.1521441759467 58.944258912371  -21.9878199632648 
0.51             7431.26371924859 -89.9960228657082 0.035906062157939 -37.8484896312046 0.0397538464601394 60.9255888594127 52.7880113829591 -21.738375016816 
0.52             7288.29881140914 -89.9959851243499 0.0330426884357239 -33.3492188265867 0.038426343273035 54.8549411174631 47.7808366862976 -20.4612432619538 
0.53             7150.75064244183 -89.9965793537486 0.0312062864628011 -29.3022768775456 0.038135746863137 49.3524936902434 43.7647283080712 -18.3109457619143 
0.54             7018.26265525769 -89.9979258770418 0.0301436683058911 -25.5954995046249 0.0387405378663141 43.9681193001741 40.6171254744825 -15.4272423972622 
0.55             6890.49960422514 -89.9996910018151 0.0297065673874878 -22.1668048168974 0.0401749846706453 38.3097848085633 38.2456865009681 -11.9566785446037 
0.56             6767.20379562706 -90.0012486130436 0.0298166014601642 -18.9809545369329 0.042408386378087 31.9917133842583 36.5789832196092 -8.06530882577192 
0.57             6648.18704401537 -90.0022336057449 0.0304469288251094 -16.0188031760034 0.0453876955630435 24.6031534808583 35.557080327136  -3.93991667113471 
0.58             6533.27363366391 -90.002677975214 0.0316148313001681 -13.2717059669712 0.0489353809663949 15.7118912187307 35.1239631528126 0.222702257369307 
0.59             6422.27626322164 -90.0027660543297 0.0333832868378934 -10.7382394897725 0.0525855139436093 4.94462387934922 35.2228568999135 4.23453367142143 
0.6              6315.00355397105 -90.0026593745414 0.0358723843481143 -8.42240600677481 0.0554395594925846 -7.79949005155108 35.7945767688601 7.93583713097303 
0.61             6211.27009664093 -90.0024596920025 0.0392853186244355 -6.33291803390493 0.0563469173916672 -22.0497138584365 36.7781550906737 11.2082264107523 
0.62             6110.90096007619 -90.0022231770083 0.0439614252186944 -4.48357874169594 0.0546426696092889 -36.708095812522 38.1125215801911 13.978189503545  
0.63             6013.73259932741 -90.0019788595136 0.05048728031685 -2.89558071623626 0.0507657973932031 -50.5449278974324 39.7381514270119 16.212465284008  
0.64             5919.61236048989 -90.0017410081725 0.0599496080519074 -1.60437688513147 0.0458521093940058 -62.8298396125182 41.5981064675217 17.9090621218169 
0.65             5828.39760770441 -90.0015161554262 0.0745912604903242 -0.679580920843619 0.0408932334934474 -73.4639164588484 43.6384009802629 19.0875167814257 
0.66             5739.95483438468 -90.0013068531649 0.0998812757140729 -0.290684953255524 0.0364058737895383 -82.712536511909 45.8079114191567 19.7805471357107 
0.67             5654.15886042211 -90.0011136516375 0.153516769997943 -0.998112422323956 0.0325454406406494 -90.9384368076625 48.0581112137349 20.0278270557161 
0.68             5570.89214050565 -90.0009362788399 0.341471934028558 -6.25414696048225 0.0292905258073816 -98.4710155873273 50.3428362732335 19.8717435682757 
0.69             5490.04369420299 -90.0007733857238 0.964588872172871 -141.545941218523 0.0265581406736764 -105.569121838832 52.618153196278  19.3546681706796 
0.7              5411.51031948821 -90.0006230889192 0.207498911985696 -167.072871154956 0.0242559071299991 -112.421995947603 54.8423397203085 18.5172524360975 
0.71             5335.19314277828 -90.0004859290843 0.111553268500955 -169.560701267117 0.0223004924754456 -119.159954316765 56.9757349001521 17.3974314276318 
0.72             5260.99969333437 -90.0003598832368 0.0741742248723399 -170.10199436204 0.02062124077084 -125.864292415813 58.9805072510663 16.0299501084561 
0.73             5188.84248840824 -90.0002437865833 0.0538912987078445 -169.929697674451 0.0191578445865342 -132.573343927099 60.8200881377527 14.4463936013336 
0.74             5118.63881930421 -90.0001364716918 0.0408116115724878 -169.185686508962 0.017855557838598 -139.283820887057 62.4584050370674 12.6758078291946 
0.75             5050.31044028117 -90.0000367291656 0.0313645593086711 -167.683907303057 0.0166588232607992 -145.946386699003 63.8591433143344 10.7460159057315 
0.76             4983.78328610898 -89.9999432331773 0.0239404107915671 -164.90774987376 0.0155027105086177 -152.45213055264 64.985540784812  8.68568019641702 
0.77             4918.98722717374 -89.9998544064862 0.017721423856123 -159.647549518306 0.014300003174951 -158.5995277615  65.8014223995356 6.52697504367721 
0.78             4855.85587749364 -89.9997681676151 0.0123565813052647 -148.696207856184 0.0129188417443209 -164.007283241791 66.2741877590444 4.30841772775747 
0.79             4794.32650154579 -89.9996814246635 0.00826105793532462 -122.629942436125 0.011139331684316 -167.833799406176 66.3800610403068 2.07700962922626 
0.8              4734.34017432933 -89.9995889955821 0.00800311461686983 -73.8311023624044 0.00856932219955297 -167.496795836155 66.1109742338606 -0.111454003600202 
0.81             4675.84283481027 -89.9994813915484 0.0132129446293053 -39.2436623719048 0.00472361923376546 -146.874914968208 65.4811853814303 -2.19494128579111 
0.82             4618.79102558527 -89.9993459890963 0.0223010055023928 -21.6026695098105 0.00740421907323165 -45.991028217752 64.5308391251265 -4.11089154809604 
0.83             4563.20410552387 -89.9994966772033 0.0357944698864238 -7.75978400140007 0.0315913036548263 -14.1541566659125 63.3240688598518 -5.80406850450859 
0.84             4508.55167080993 -90.0025322936095 0.0554402388226959 9.28668204669539 0.09243883807169 38.4339507129123 61.9412053870535 -7.23435210936027 
0.85             4455.48042322286 -90.0003855654149 0.0780548983500969 34.5782406628837 0.0804313449022625 89.3093969374057 60.4672485298352 -8.38196357937571 
0.86             4403.64418746633 -89.9999997930072 0.0856083313433512 64.8187504701393 0.0638761480731425 100.82110018911  58.980288666232  -9.2485333812187 
0.87             4352.99018943774 -89.9998423817758 0.0751126103567023 87.6400458685965 0.0580428473643413 102.120821349988 57.5431752453555 -9.8540934341104 
0.88             4303.48452332614 -89.9997544242477 0.0626952322744223 100.797457753762 0.0569179301940804 100.090209244958 56.1998733206988 -10.2314052291694 
0.89             4255.09062924989 -89.9996975322433 0.0535811179485757 108.009535914814 0.0585242711473106 96.4307800467527 54.9760095322032 -10.4195748766579 
0.9              4207.77230870364 -89.9996579478947 0.0474410939019226 111.859306695465 0.0622593067185496 91.6061859568374 53.8820566718505 -10.4585216029188 
0.91             4161.49449551371 -89.999629507357 0.043447958684035 113.621092943157 0.068050003317428 85.6150517646734 52.9175091189188 -10.385098673356 
0.92             4116.22345273216 -89.9996090058198 0.0410688542288721 113.890555157762 0.0760486355826707 78.1746191168111 52.0748745139019 -10.2309572405376 
0.93             4071.92680059126 -89.9995945823626 0.0400632321715254 112.909455791039 0.0863547134354107 68.7556753294829 51.3428909663357 -10.0218179517773 
0.94             4028.5734877019  -89.9995850488831 0.0404488559497945 110.686687704759 0.098403734088514 56.6393782001726 50.7088223513886 -9.77767544418741 
0.95             3986.13374283829 -89.9995795615039 0.0425577504296146 106.992077651863 0.109745936225679 41.2554404271583 50.1599307626542 -9.51350401149391 
0.96             3944.57902259908 -89.9995774525137 0.0472771292624793 101.187314473386 0.115388148538118 23.0962210180461 49.6843178002583 -9.2401504369368 
0.97             3903.88195739639 -89.9995782036589 0.0567442028722489 91.6159280201336 0.111389592772358 4.44678425077445 49.2713296082353 -8.9652218074266 
0.98             3864.01629369945 -89.9995814035226 0.0757320656094438 73.3349869278501 0.0999439726259051 -11.9639684734015 48.9116854233663 -8.69387053236675 
0.99             3824.95687020268 -89.9995869130068 0.100171977885778 32.6688958093695 0.0864067600415916 -24.9873963885717 48.597446814069  -8.4294415206478 
1                3786.67943590202 -89.9995962720988 0.0736781773113424 -19.8187403086024 0.0741001670772364 -34.9465403455337 48.3219004202734 -8.17398364912825 
