! Touchstone file from project FYP_Sim_Actual_Separated_Ports
! Exported from HFSS 13.0.2
# GHZ S MA R 50.000000
! Terminal data exported
! Port[1] = PD2_Incision_Port_T1
! Port[2] = Radiating_Plate_T1
0                0.999999999998181 180              3.44604529685701E-012 180              2.5988045148589E-012 180              0.999137337767934 0                
0.01             1                179.986998193562 3.03060621277449E-012 154.053586485317 2.20470056903056E-012 140.872270171975 0.998337923673408 -7.22846624339122 
0.02             0.999999999999947 179.973996382771 3.02426204943339E-012 95.1433640528583 3.10852367037867E-012 66.2717253372187 0.99651172593708 -14.3735887572811 
0.03             0.999999999999924 179.960994563267 7.66859622140271E-012 44.5216254491422 8.79967238494971E-012 27.9362716702009 0.994854943312561 -21.4629223607404 
0.04             0.999999999999923 179.94799273069  2.05283041122681E-011 22.6009369122756 2.18241419722635E-011 8.94004166164666 0.993360698229151 -28.5190110366735 
0.05             0.999999999999935 179.934990880682 5.26118523247806E-011 2.00856140045939 5.08986362028786E-011 -10.731624349715 0.991923298364726 -35.5445815860488 
0.06             0.999999999999955 179.921989008883 1.25570834921157E-010 -34.4970630517568 1.11073919114482E-010 -42.3063230380761 0.990510802780757 -42.5370872143457 
0.07             0.999999999999978 179.90898711093  1.85264528243982E-010 -82.4923026973767 1.74940457957815E-010 -85.0451454564579 0.989136918520415 -49.4944231859449 
0.08             0.999999999999997 179.895985182459 2.17892251831144E-010 -112.42470574242 2.15157391655998E-010 -117.449437066173 0.987828983616879 -56.4164597094724 
0.09             1                179.882983219105 3.21221061544484E-010 -138.920730493489 3.05859670118575E-010 -145.107476405107 0.986607179839267 -63.3053444757927 
0.1              0.999999999999969 179.8699812165   4.80432073593664E-010 155.859489939053 4.79386354261698E-010 155.335096440972 0.985470444409138 -70.165406830187 
0.11             0.999999999999432 179.856979170498 7.82237717590167E-010 -154.131168531647 7.32981843860418E-010 -158.515610271686 0.984352191969492 -77.0063948317748 
0.12             0.999999999998922 179.843977076575 1.27143676262053E-009 -131.49569531921 1.15631587009891E-009 -135.202421947569 0.98327034488486 -83.8165980496909 
0.13             0.999999999998457 179.830974930366 1.80807271283979E-009 -117.258188714023 1.63793914391294E-009 -120.163984550266 0.982224019987955 -90.6004510385276 
0.14             0.99999999999805 179.817972727498 2.35732985052686E-009 -105.734914770853 2.14640922674203E-009 -108.01255916257 0.981200437192949 -97.363539770958 
0.15             0.999999999997717 179.804970463594 2.90367385946363E-009 -95.1488388546387 2.66810903483467E-009 -96.913118464778 0.98017402133553 -104.112515304019 
0.16             0.999999999997474 179.79196813427  3.4368497586565E-009 -84.7487737253941 3.19434228062512E-009 -86.0713742536044 0.979105731571752 -110.855006865385 
0.17             0.999999999997336 179.778965735127 3.94944446378257E-009 -74.1189851583661 3.71868228974968E-009 -75.0534971767851 0.97794256333331 -117.599539921759 
0.18             0.999999999997326 179.76596326174  4.4369988478595E-009 -62.9686829865147 4.23675891945219E-009 -63.5679262243383 0.976617164531716 -124.355463711069 
0.19             0.999999999997487 179.752960709637 4.89920176411391E-009 -51.0559246985132 4.74703263436171E-009 -51.3841660432494 0.975047507549047 -131.132891583927 
0.2              0.999999999997931 179.739958074227 5.34191133372195E-009 -38.161457561085 5.25227207064416E-009 -38.302451231513 0.973136560602139 -137.942656304047 
0.21             0.99999999999905 179.726955350565 5.77988216664194E-009 -24.0905443396336 5.76164787361199E-009 -24.1492054085222 0.970771906264236 -144.79628115526 
0.22             1.00000000000308 179.713952532145 6.23974548484255E-009 -8.69888564269705 6.2931925732237E-009 -8.79151703966645 0.967825262409975 -151.705966214178 
0.23             1.00000000006022 179.700949593884 6.76201244143716E-009 8.06009753744065 6.87590643519192E-009 7.83221761156106 0.964151874217294 -158.684587370302 
0.24             1.00000000004311 179.687946662383 7.39990912834508E-009 26.082763380734  7.55011486926557E-009 25.6736945103058 0.959589769418833 -165.745703502598 
0.25             1.00000000000409 179.674943525605 8.21277809516892E-009 45.0951954938781 8.36432565551172E-009 44.5482335828151 0.953958908905298 -172.903564566257 
0.26             1.00000000000057 179.661940297423 9.25407562573421E-009 64.7040515833761 9.36776434213284E-009 64.1472044220844 0.947060328974831 179.826889821917 
0.27             0.999999999999564 179.648936958445 1.05581363685829E-008 84.5090912574779 1.06003811843171E-008 84.0996512388895 0.938675469088339 172.430055291906 
0.28             0.999999999999045 179.635933502446 1.21320984962782E-008 104.209869170667 1.20847796136221E-008 104.057185721416 0.928566018549458 164.88972879915  
0.29             0.999999999998571 179.62292992451  1.39571350076668E-008 123.646091200395 1.38244858952338E-008 123.75734556951  0.916474801791985 157.189236669016 
0.3              0.999999999997978 179.609926220028 1.59989773414124E-008 142.773454491442 1.58098812721586E-008 143.042002301738 0.902128449529674 149.311646754657 
0.31             0.999999999997178 179.596922384495 1.82249978281258E-008 161.615424812938 1.80295462296782E-008 161.841211727346 0.885242846596792 141.24008452033  
0.32             0.999999999996111 179.58391841344  2.06239802250651E-008 -179.778099087365 2.04830725264036E-008 -179.854913155235 0.865532548589111 132.95816409803  
0.33             0.999999999994739 179.570914302413 2.32244027278053E-008 -161.358211922337 2.31918470786796E-008 -162.021783885868 0.84272541416463 124.450526775892 
0.34             0.999999999993035 179.557910046968 2.61077670483654E-008 -143.095715778151 2.62059305869415E-008 -144.619324716561 0.816583454271349 115.703447629585 
0.35             0.999999999990991 179.544905642664 2.94151642591202E-008 -124.995136253602 2.96068088780673E-008 -127.604834662796 0.786930172862999 106.705424420808 
0.36             0.999999999988618 179.531901085056 3.3347075747686E-008 -107.10151632678 3.35067422334431E-008 -110.940411527137 0.753683328049384 97.447603978618  
0.37             0.999999999985945 179.518896369701 3.81578257990195E-008 -89.4936445972544 3.80455455767958E-008 -94.5950916732682 0.716890110374841 87.9238397046939 
0.38             0.999999999983026 179.505891492153 4.4147105795351E-008 -72.2609766823337 4.33851807629325E-008 -78.5422298996798 0.676759571125859 78.1301280430013 
0.39             0.99999999997994 179.492886447961 5.16511054013449E-008 -55.4707584534313 4.97018224297592E-008 -62.7537959412676 0.633685493845353 68.0631667703444 
0.4              0.99999999997679 179.479881232676 6.10338198542058E-008 -39.1387034802039 5.71741931147537E-008 -47.1943225630373 0.588252794418133 57.717837803711  
0.41             0.999999999973709 179.466875841846 7.26743804808298E-008 -23.2145602397666 6.59660690335126E-008 -31.8174651150743 0.541222757445183 47.0835543306869 
0.42             0.999999999970848 179.453870271015 8.69395443041185E-008 -7.58571941109203 7.6200382879405E-008 -16.5674031993257 0.493496928474463 36.139623171411  
0.43             0.999999999968381 179.44086451573  1.04123734360194E-007 7.90431067116421 8.79233520610419E-008 -1.38601938212298 0.44606503077721 24.8500548730841 
0.44             0.999999999966492 179.427858571533 1.24336573633111E-007 23.4262124714477 1.01061140756892E-007 13.7747126386093 0.399946711080405 13.1586453766869 
0.45             0.999999999965374 179.41485243397  1.47330855177802E-007 39.1250932299708 1.15379826263024E-007 28.9374357158641 0.35613815692157 0.985795019489503 
0.46             0.99999999996521 179.401846098584 1.72311490120242E-007 55.0724497511088 1.30469773351543E-007 44.0855875046176 0.315571624367297 -11.7703120096031 
0.47             0.99999999996617 179.38883956092  1.97852041701671E-007 71.2205531122267 1.45779539875098E-007 59.1571116078398 0.279088935299646 -25.2236468774573 
0.48             0.99999999996839 179.37583281652  2.22098192468419E-007 87.384175402082  1.60710228580158E-007 74.0511297855845 0.247420329879631 -39.4747593840937 
0.49             0.999999999971965 179.36282586093  2.43306152108303E-007 103.276275899411 1.74747522103008E-007 88.6483827452313 0.221150539953461 -54.5636926521555 
0.5              0.999999999976936 179.349818689694 2.60448519521717E-007 118.594658577579 1.8757820144371E-007 102.839215865896 0.20065190951748 -70.4057253130628 
0.51             0.999999999983278 179.336811298355 2.73475863816395E-007 133.114634461032 1.99141698650533E-007 116.548584517667 0.185983319797523 -86.7395170313234 
0.52             0.999999999990894 179.323803682454 2.83109533188678E-007 146.737835435706 2.09606247514698E-007 129.749778344349 0.176798839920315 -103.140193487215 
0.53             0.999999999999605 179.310795837531 2.90415842701327E-007 159.486202889519 2.19299020581937E-007 142.465240699173 0.172345274144305 -119.124457673431 
0.54             1.00000000000916 179.297787759122 2.96456535188262E-007 171.465545025994 2.28630775572863E-007 154.7585272855   0.171589773385614 -134.295215456463 
0.55             1.00000000001922 179.284779442758 3.02120738235925E-007 -177.173423358142 2.38041068468362E-007 166.723058008446 0.173421875723492 -148.431702399323 
0.56             1.00000000002938 179.271770883967 3.08095769630587E-007 -166.262893721413 2.47970176362015E-007 178.471804257902 0.176827594528588 -161.487514812907 
0.57             1.00000000003919 179.258762078271 3.1490254540271E-007 -155.633237938138 2.5885145066766E-007 -169.870262821488 0.180978932978857 -173.533259406764 
0.58             1.00000000004812 179.245753021182 3.22945023143716E-007 -145.119288915255 2.71113583386039E-007 -158.170847241804 0.185248054313111 175.305820312106 
0.59             1.00000000005563 179.23274370821  3.32549547692856E-007 -134.561583282176 2.85181665469056E-007 -146.292893051825 0.189181879435795 164.893216182002 
0.6              1.00000000006116 179.219734134854 3.4398403720245E-007 -123.805562852874 3.01464866004174E-007 -134.096214276894 0.192466532780914 155.104291974493 
0.61             1.00000000006413 179.206724296606 3.57450754224413E-007 -112.700910464738 3.20315082436357E-007 -121.439743116617 0.194896824673528 145.835788138616 
0.62             1.00000000006398 179.19371418895  3.73045004612927E-007 -101.102940822132 3.41935624215344E-007 -108.186657496987 0.196355754319201 137.00780382418  
0.63             1.00000000006018 179.180703807361 3.90670625998115E-007 -88.8782684863648 3.66217537455682E-007 -94.2158312729892 0.196803662244826 128.561833836807 
0.64             1.00000000005223 179.167693147305 4.09909086346554E-007 -75.9175326893202 3.92499707301083E-007 -79.4441787111903 0.196273870975034 120.456325707953 
0.65             1.00000000003968 179.154682204241 4.29864771726052E-007 -62.157870099518 4.19316186085239E-007 -63.8633192618258 0.194869626571084 112.660017890972 
0.66             1.00000000002215 179.141670973618 4.49065776209744E-007 -47.6151203511295 4.44323021822336E-007 -47.5860803434324 0.192755399384222 105.143087655908 
0.67             0.999999999999337 179.128659450875 4.65567800707684E-007 -32.4180143782788 4.64690701660538E-007 -30.8810972586001 0.190135158009332 97.8670074652835 
0.68             0.999999999970995 179.115647631443 4.77395436764979E-007 -16.8250956000246 4.78051558108996E-007 -14.1589266143931 0.187213514361807 90.7759020703911 
0.69             0.999999999936976 179.102635510743 4.83241340243394E-007 -1.20090972817995 4.8352821375913E-007 2.11038044054506 0.184144731855037 83.7940484854673 
0.7              0.999999999897215 179.089623084185 4.83025451967619E-007 14.0537448783259 4.82052264846777E-007 17.5149958815485 0.180987193171514 76.8336050594962 
0.71             0.999999999851738 179.07661034717  4.77894845458921E-007 28.5885461025883 4.75745917768672E-007 31.7865399762191 0.17768750972467 69.8119053911672 
0.72             0.99999999980066 179.063597295086 4.69679898726626E-007 42.1636695570694 4.66954218989878E-007 44.8156261545087 0.1741083585828  62.6709684564981 
0.73             0.999999999744187 179.05058392331  4.60228460258039E-007 54.6622331815072 4.57579842128296E-007 56.6154364888401 0.170089768853825 55.389323257191  
0.74             0.999999999682613 179.037570227204 4.50985843989371E-007 66.0670478204625 4.4888147008893E-007 67.2711205097922 0.165513890199262 47.9810242061334 
0.75             0.999999999616312 179.024556202121 4.4288498310449E-007 76.425503778712  4.41558871282038E-007 76.8990131438097 0.160344836799228 40.4845657636291 
0.76             0.999999999545735 179.011541843393 4.36424045501316E-007 85.8189043153878 4.35924996747174E-007 85.6214425081847 0.154633941886244 32.9486407758258 
0.77             0.999999999471402 178.998527146342 4.31800968469801E-007 94.3415128556975 4.32060879524096E-007 93.5539341334039 0.148499230441846 25.4205597953881 
0.78             0.999999999393886 178.98551210627  4.29034470144704E-007 102.088317707854 4.29924621693116E-007 100.800033094395 0.142094835119219 17.9396307762404 
0.79             0.999999999313805 178.972496718462 4.28050548368957E-007 109.148779179139 4.29418842229979E-007 107.450135697369 0.135582818897583 10.5350126784977 
0.8              0.999999999231804 178.959480978185 4.28736854657054E-007 115.604149376303 4.30428980447044E-007 113.582169754186 0.129113224561255 3.22645679206868 
0.81             0.999999999148535 178.946464880685 4.30973860454084E-007 121.526742449626 4.32843455820422E-007 119.262982923727 0.122812964696013 -3.97358339276591 
0.82             0.999999999064641 178.933448421189 4.34651226914432E-007 126.980190430792 4.36563317549887E-007 124.549890306131 0.116781639993917 -11.0575059930703 
0.83             0.999999998980726 178.9204315949   4.39675468355983E-007 132.020148616923 4.41506132144463E-007 129.492142256381 0.111091826523095 -18.0203395047178 
0.84             0.999999998897337 178.907414397    4.45972824365742E-007 136.695165737164 4.47606888116465E-007 134.132224897739 0.105791772973521 -24.8579890500584 
0.85             0.99999999881493 178.894396822651 4.53489691145406E-007 141.047573852862 4.54817479425783E-007 138.506975448306 0.100909098074927 -31.5660146919341 
0.86             0.999999998733847 178.881378866986 4.6219195932005E-007 145.114328554491 4.63105615595897E-007 142.648523864795 0.0964546530066415 -38.1389189624894 
0.87             0.999999998654279 178.86836052512  4.72064001908325E-007 148.927770250443 4.72453601627144E-007 146.585082736944 0.0924261217078014 -44.5698801971574 
0.88             0.999999998576239 178.855341792141 4.83107708782638E-007 152.516298354528 4.82857206851014E-007 150.341609295603 0.0888111843475998 -50.8508482505096 
0.89             0.999999998499532 178.842322663117 4.9534177176505E-007 155.904960799801 4.94324720764273E-007 153.940361823586 0.0855902070547562 -56.9729079283633 
0.9              0.999999998423718 178.829303133089 5.08801323386186E-007 159.115966328075 5.06876230085289E-007 157.401369995767 0.0827384852959648 -62.9268102151594 
0.91             0.999999998348087 178.816283197079 5.2353798374409E-007 162.169129041209 5.20543118689787E-007 160.742835748724 0.0802280904891509 -68.7035732504204 
0.92             0.999999998271626 178.803262850087 5.39620351529923E-007 165.082255191825 5.35367775889594E-007 163.981478607064 0.0780293708407886 -74.2950654126199 
0.93             0.999999998192996 178.790242087092 5.57134974677414E-007 167.871481939671 5.51403490259099E-007 167.132837108863 0.0761121510488541 -79.6945014090256 
0.94             0.999999998110504 178.777220903057 5.76187846650618E-007 170.551577257276 5.68714500927108E-007 170.211536087438 0.0744466683992538 -84.8968063094515 
0.95             0.999999998022086 178.764199292923 5.96906493028631E-007 173.136209594472 5.87376172790147E-007 173.231528039573 0.0730042777759063 -89.8988279140773 
0.96             0.999999997925286 178.751177251618 6.1944273887555E-007 175.638195461712 6.07475254140577E-007 176.206315579651 0.0717579555791596 -94.6994005428345 
0.97             0.999999997817246 178.738154774056 6.43976280972516E-007 178.069732871557 6.29110162594196E-007 179.149160974831 0.0706826316661318 -99.2992802504134 
0.98             0.999999997694694 178.725131855138 6.70719232063527E-007 -179.557371327314 6.52391225528861E-007 -177.926712098788 0.0697553780525772 -103.700981332167 
0.99             0.99999999755394 178.712108489753 6.99921859627471E-007 -177.231471686859 6.77440771432227E-007 -175.007920234608 0.068955482346943 -107.908547185157 
1                0.999999997390878 178.699084672785 7.31879813274683E-007 -174.940842402626 7.04392924503099E-007 -172.080721912224 0.0682644322602989 -111.927286636314 
