! Touchstone file from project FYP_Sim_Actual_Separated_Ports
! Exported from HFSS 13.0.2
# GHZ S MA R 50.000000
! Terminal data exported
! Port[1] = PD2_Incision_Port_T1
! Port[2] = Radiating_Plate_T1
0                0.999999991347977 0                7.74243497698784E-011 180              7.65003740685901E-011 180              0.999152857956688 0                
0.01             0.999999999984881 -0.0184632269436798 7.94294828763369E-011 128.847058633212 8.19658342859313E-011 129.843930645171 0.998365790952281 -7.1288885296405 
0.02             1.00000003166681 -0.0369277402767346 8.94729173644458E-011 64.5226474008328 9.43253505249232E-011 74.8133088733706 0.996570112826088 -14.1772416281964 
0.03             1.00000013307655 -0.0553959337994652 2.11390657428956E-010 -8.9137641541714 1.78291442922954E-010 3.95713648635835 0.994937411942889 -21.1732225755959 
0.04             1.00000067725206 -0.0738666543825063 7.12771436349928E-010 -49.8779146059389 5.8078276809375E-010 -41.9888231317411 0.993461362085286 -28.1400698173844 
0.05             1.00000051073684 -0.0922601796444515 2.35390567427356E-009 -83.3628123955   1.97940483754798E-009 -74.4021830343725 0.992038619053865 -35.081538333575 
0.06             1.00000005936513 -0.110740070331415 6.82772074689846E-009 -136.450361162539 6.69239965719499E-009 -124.630384190164 0.990638229652959 -41.9961473658518 
0.07             1.00000000603802 -0.129212659709058 9.80810512849866E-009 165.924517097602 1.03927648242924E-008 167.425749341763 0.989274073091567 -48.8827852657472 
0.08             0.999999998284824 -0.147682418366383 1.27111107951904E-008 134.703575648823 1.25809990384161E-008 133.305717493349 0.987973324034036 -55.7422170395197 
0.09             0.999999998484507 -0.166152131620676 2.39495465787907E-008 101.54054248174  2.27723644827601E-008 100.972761588774 0.986755812202915 -62.5773881039677 
0.1              0.999999998085594 -0.184622865112552 2.96320501438771E-008 4.93907983922735 2.95227862415008E-008 4.96595813895664 0.985619834439932 -69.3933381811875 
0.11             1.00000007341375 -0.203087546875985 4.89841909244722E-008 6.20636983707883 5.10680624340076E-008 4.36729839228399 0.984458087311946 -76.198404393197 
0.12             1.00000015585572 -0.221552979286479 7.21131128996815E-008 6.48018145459254 7.60586590842027E-008 3.84501595351051 0.983333383629884 -82.9827123399183 
0.13             1.00000024463047 -0.240019260493291 9.9564410057501E-008 6.15827728325554 1.0494372884741E-007 3.21578071049914 0.982245351239468 -89.7509292029612 
0.14             1.00000033819266 -0.258486494107931 1.31933635828986E-007 5.36026498867301 1.38234743344668E-007 2.40271335560833 0.981181544491206 -96.5087568538213 
0.15             1.00000043366485 -0.2769547854772 1.69846154397E-007 4.12484611326414 1.76500333744009E-007 1.35268139050395 0.980116553740456 -103.262851898551 
0.16             1.00000052582852 -0.295424232490352 2.13925015185738E-007 2.46003619610219 2.20350774000712E-007 0.0181476169795363 0.97901136089481 -110.020745727419 
0.17             1.0000006052869  -0.313894904190294 2.64738793338522E-007 0.360913192968557 2.70404572962977E-007 -1.64806055533436 0.977812886958515 -116.79076964773 
0.18             1.00000065502232 -0.332366790703195 3.22722500405589E-007 -2.18175194484439 3.27226933642559E-007 -3.69371465794255 0.976453674044314 -123.581989125355 
0.19             1.00000064374087 -0.350839680748107 3.88067171895935E-007 -5.17542397238996 3.91227684168976E-007 -6.16563186365537 0.974851644368959 -130.404150047038 
0.2              1.0000005125994  -0.36931283971765 4.60580833924154E-007 -8.62007226747543 4.62507726611853E-007 -9.10567823212204 0.972909881437928 -137.267638737665 
0.21             1.00000014819325 -0.38778408228048 5.39537546666841E-007 -12.502158892011 5.40653620868921E-007 -12.5439879338805 0.970516383921838 -144.18345618317 
0.22             0.999999329190874 -0.406246818570654 6.23551663268729E-007 -16.7887028382964 6.24506927939802E-007 -16.4893508665738 0.967543751713033 -151.163205450985 
0.23             0.999997647646828 -0.424679883099714 7.10534188735182E-007 -21.4226103181183 7.11981331104843E-007 -20.9178125225347 0.963848778738521 -158.219089580796 
0.24             0.999994644761257 -0.443014777022692 7.97791192753472E-007 -26.3210188028038 8.0005068588927E-007 -25.7623942248337 0.959271952194732 -165.363915155067 
0.25             0.999991743396283 -0.461101843432534 8.82292523383686E-007 -31.3782572675504 8.85037592231441E-007 -30.9086861702689 0.953636898378397 -172.611094293573 
0.26             0.999994629156587 -0.479040658875703 9.61071224072368E-007 -36.4738481322737 9.63235548026642E-007 -36.2010719600862 0.946749877923892 -179.974634954268 
0.27             1.00000059847578 -0.497288289329465 1.03164207182282E-006 -41.4840544033191 1.03170364579449E-006 -41.4608383094674 0.938399525266899 172.530893710982 
0.28             1.00000336844226 -0.515744477537785 1.09230329436128E-006 -46.2938374535175 1.08891372590385E-006 -46.5113527576239 0.928357154617932 164.890437275673 
0.29             1.00000347209894 -0.534248089164703 1.14223442602408E-006 -50.8058277085193 1.13497204533209E-006 -51.2010967909965 0.916378119296269 157.08859194269  
0.3              1.00000247112643 -0.552772633284627 1.18139454398808E-006 -54.9442018587789 1.17137526541543E-006 -55.4164181843557 0.90220490463636 149.109819728986 
0.31             1.00000129556124 -0.571312228747831 1.21029835328582E-006 -58.6533007836151 1.20049186852912E-006 -59.081441071527 0.885572830369508 140.938759348272 
0.32             1.00000033683027 -0.589856952246934 1.22976713568575E-006 -61.8922602349763 1.22501473627445E-006 -62.1480934368183 0.866219381648401 132.560640591902 
0.33             0.999999676466304 -0.60839813980634 1.24072699387939E-006 -64.6273372136249 1.24752891128194E-006 -64.5815187845341 0.843898187027382 123.96179299886  
0.34             0.999999272342417 -0.626931294165163 1.24408953913719E-006 -66.8232129255931 1.27020415304109E-006 -66.3456359746507 0.818398388919501 115.130211867231 
0.35             0.999999056854131 -0.645455198061394 1.24072437565524E-006 -68.4338513346287 1.29453897786496E-006 -67.3924283542981 0.789569466905564 106.056105548433 
0.36             0.999998971931341 -0.66397033700677 1.23152638430774E-006 -69.3929260512099 1.32106816062975E-006 -67.658214088732 0.757350384599348 96.7323005852444 
0.37             0.999998975650215 -0.682477831258052 1.21759210623637E-006 -69.6037210365051 1.34899798926499E-006 -67.0706968427759 0.721800293953433 87.154334630888  
0.38             0.999999039872376 -0.700978900190876 1.20054489200756E-006 -68.9292344107929 1.37586785825102E-006 -65.5703248196382 0.683126265514918 77.3200371064111 
0.39             0.999999146403253 -0.719474643341505 1.18308397710537E-006 -67.1860619569383 1.39754653370961E-006 -63.1451075621407 0.641702241222457 67.2284047899907 
0.4              0.999999283805535 -0.737965974088137 1.16986385007851E-006 -64.1526789493158 1.40900421140919E-006 -59.867060464429 0.598073417615164 56.8776429176642 
0.41             0.999999445169144 -0.75645361706331 1.16878158301631E-006 -59.6159988935291 1.40600546418736E-006 -55.9059979478638 0.552942154894442 46.2623707665558 
0.42             0.999999626660864 -0.774938127493376 1.19251861081067E-006 -53.4921096038625 1.38701840347638E-006 -51.4991703570664 0.507135197770204 35.3701786945253 
0.43             0.99999982662578 -0.793419914549227 1.25959625132395E-006 -46.027008278085 1.35403038260414E-006 -46.8838925454423 0.46155648738529 24.1779597909308 
0.44             1.00000004506553 -0.81189926174834 1.39366601276114E-006 -37.9502740018037 1.31165546169944E-006 -42.231683826747 0.417133468687775 12.648729247972  
0.45             1.00000028338023 -0.830376342109463 1.6207818195646E-006 -30.3331218659025 1.26533088958005E-006 -37.6196867632581 0.374765959392495 0.730036525107257 
0.46             1.00000054431084 -0.848851227550521 1.96715214550174E-006 -24.1455461805677 1.21985725192107E-006 -33.0429009303952 0.335284613855358 -11.6443465416264 
0.47             1.00000083205809 -0.867323892552586 2.46023116510298E-006 -19.9179813281031 1.17882685733266E-006 -28.4468483671289 0.299421227291771 -24.5470008636737 
0.48             1.00000115258842 -0.88579421212337 3.13257829763152E-006 -17.7598304341886 1.14473049237811E-006 -23.7605838228313 0.267786977904975 -38.0406269874573 
0.49             1.00000151417548 -0.904261953931832 4.0258915040169E-006 -17.5607008963751 1.11933085972616E-006 -18.9212450365123 0.240849400331147 -52.1507788615155 
0.5              1.00000192827712 -0.922726764383564 5.19351018987583E-006 -19.155473915013 1.10402929144184E-006 -13.8897113507427 0.218897896693583 -66.8300871311871 
0.51             1.00000241093009 -0.941188148694061 6.70047245787752E-006 -22.3966878044394 1.10012156781494E-006 -8.65946769036045 0.201995596931646 -81.9267121889237 
0.52             1.0000029849868  -0.959645446457677 8.62006587345899E-006 -27.1597050551722 1.10893371123852E-006 -3.26003519017834 0.189933827241319 -97.1801447967504 
0.53             1.00000368377792 -0.978097808815948 1.10264434020379E-005 -33.3103207843993 1.13186467103548E-006 2.24493213592373 0.18222307798285 -112.262732669812 
0.54             1.00000455727444 -0.996544196605857 1.39869419450994E-005 -40.6561620881891 1.17037249876957E-006 7.76505226022811 0.178148149430311 -126.856722633476 
0.55             1.00000568276527 -1.01498345639541 1.75668605126367E-005 -48.9061833101001 1.22594078900101E-006 13.1952231926972 0.176878626411639 -140.726967908524 
0.56             1.00000718386784 -1.03341463892372 2.18696489074201E-005 -57.6687479261001 1.30005631972473E-006 18.4296723237501 0.177590618910404 -153.753422956863 
0.57             1.00000926485815 -1.05183804235501 2.71390181329477E-005 -66.5049453349901 1.39421699273227E-006 23.374536316341  0.179555945969042 -165.92011601057 
0.58             1.00001227085266 -1.07025842921611 3.39613670199513E-005 -75.0131655751507 1.5099743146265E-006 27.9560741666138 0.182183108277428 -177.281764342039 
0.59             1.0000167739644  -1.08869478141816 4.37130232168699E-005 -82.8888565701469 1.64900239577524E-006 32.1234413636575 0.185019749891603 172.070443885419 
0.6              1.00002356356953 -1.10720832599286 5.99215840999377E-005 -89.9080292844448 1.81317975143526E-006 35.846834143778  0.187734451293571 162.033717888936 
0.61             1.00003273808914 -1.12596152341125 9.44301722942599E-005 -95.7422298025181 2.00467069177409E-006 39.1128252465772 0.190092068450542 152.508222001287 
0.62             1.00003984083839 -1.14518036557402 0.000226299382584653 -98.3927388436614 2.22599631801298E-006 41.9187263350179 0.191930439732937 143.404067124661 
0.63             1.00003559842627 -1.16460055289509 0.000499033776987486 57.3582571940868 2.48008742207234E-006 44.2672542316193 0.19314149922814 134.643767429178 
0.64             1.00002336926023 -1.18352200854023 0.000117611383275127 62.3332003914188 2.77031064900391E-006 46.1621308119557 0.193657251382619 126.162345876884 
0.65             1.00001340503197 -1.20198761646268 6.57403557024314E-005 59.1504163976001 3.10045412870609E-006 47.6047769129503 0.193439974520841 117.906389557722 
0.66             1.00000753691784 -1.22031720603758 4.53218666579176E-005 55.5205905399812 3.47464888071894E-006 48.5920250440284 0.192475705343144 109.83273838807  
0.67             1.00000428441408 -1.2386466586979 3.44686690922029E-005 51.9511564254933 3.89718711417316E-006 49.1147269305283 0.190770067173097 101.907125728399 
0.68             1.00000244915136 -1.25700627270555 2.77782070281214E-005 48.5351613631991 4.37217800292454E-006 49.1572058651555 0.188345624996257 94.1028957985191 
0.69             1.00000137856049 -1.27539636112715 2.32712436001376E-005 45.2867163102019 4.90295781508193E-006 48.697654505937  0.185240094697733 86.3998304666446 
0.7              1.00000073538226 -1.29381138359383 2.00507269686529E-005 42.1997348839217 5.49115295491932E-006 47.7097761624249 0.181504878237874 78.7830813339965 
0.71             1.0000003412432  -1.31224588121711 1.76509947784285E-005 39.2632265248446 6.13530340980744E-006 46.166172942296  0.177203539189355 71.2421950702301 
0.72             1.00000009782088 -1.33069555906072 1.58063065833946E-005 36.4659887315785 6.82903363434945E-006 44.0441072298288 0.172409975673608 63.7702252431589 
0.73             0.99999994852481 -1.34915722718864 1.43540078093588E-005 33.7980459463151 7.5589715118541E-006 41.3341117486957 0.16720618696738 56.3629334638105 
0.74             0.9999998594472  -1.36762854513791 1.31890187965058E-005 31.2509633225645 8.3030087566278E-006 38.0511938709834 0.161679656402272 49.0180912314753 
0.75             0.999999809525145 -1.38610778898811 1.22404788215992E-005 28.8177591734625 9.02998363408165E-006 34.2468115353206 0.155920473859012 41.7348984460407 
0.76             0.99999978524913 -1.40459367620713 1.14589033988008E-005 26.4926876690124 9.70208415784042E-006 30.0176359522677 0.150018384887506 34.5135339423857 
0.77             0.999999777704032 -1.42308524111383 1.0808718146604E-005 24.2709986044703 1.02806152153572E-005 25.5056887504125 0.144059974926742 27.3548477811944 
0.78             0.999999780854351 -1.4415817476383 1.02637144727223E-005 22.1487157591261 1.07339954518142E-005 20.8859042153703 0.138126179045832 20.2601956117375 
0.79             0.999999790517953 -1.46008262813461 9.80417506142149E-006 20.1224480632986 1.10449045297914E-005 16.3424232597462 0.132290260210242 13.2314039830001 
0.8              0.999999803733848 -1.47858744011313 9.41499499884743E-006 18.1892361151196 1.12132616906524E-005 12.0412201420656 0.12661633660416 6.27084392174944 
0.81             0.999999818362482 -1.49709583529937 9.08441847151804E-006 16.3464316865586 1.12539105364801E-005 8.10893683918535 0.121158475433765 -0.618419879933836 
0.82             0.999999832827083 -1.5156075372322 8.80316816959823E-006 14.5916060004661 1.11907801646737E-005 4.62398769354598 0.115960318040684 -7.43244397221157 
0.83             0.999999845942754 -1.53412232483935 8.56383216616276E-006 12.9224820969325 1.10505348053712E-005 1.61950106954678 0.111055165173249 -14.1662279913763 
0.84             0.999999856801398 -1.55264002024578 8.36042372988993E-006 11.3368867789416 1.08578910656902E-005 -0.906644996374538 0.106466432960028 -20.8135848649575 
0.85             0.999999864692904 -1.57116047961608 8.18805980274064E-006 9.83271807380342 1.0633211686051E-005 -2.97990372315106 0.102208386796234 -27.3670945639592 
0.86             0.999999869050342 -1.58968358619812 8.04272247951039E-006 8.40792469252034 1.03919135899706E-005 -4.63863231889195 0.098287067297653 -33.8181657682906 
0.87             0.999999869411303 -1.60820924498234 7.92107955462776E-006 7.0604945269138  1.01449200256066E-005 -5.92644681725481 0.094701334710499 -40.1572153523551 
0.88             0.999999865390294 -1.62673737856017 7.8203477654722E-006 5.78844975071391 9.8995283613754E-006 -6.88730903158281 0.0914439716080842 -46.3739592463593 
0.89             0.999999856658788 -1.6452679238823 7.73818734087716E-006 4.58984656531862 9.66032048177844E-006 -7.56274114615899 0.0885027957815286 -52.4577924102825 
0.9              0.99999984293067 -1.66380082969865 7.67261980311945E-006 3.46277804527365 9.42994755742728E-006 -7.99048860081618 0.0858617449226232 -58.398223044644 
0.91             0.999999823951493 -1.68233605451999 7.62196324989158E-006 2.40537889136358 9.20974224669572E-006 -8.2040764331959 0.0835019021892862 -64.1853190223728 
0.92             0.999999799490504 -1.70087356498245 7.58478092118638E-006 1.41583119318577 9.00016862644485E-006 -8.23286892530403 0.0814024378787344 -69.8101240673472 
0.93             0.999999769334659 -1.71941333452539 7.55983996534073E-006 0.492370543109431 8.80114016755009E-006 -8.10238256160864 0.0795414481467851 -75.2650071962334 
0.94             0.999999733284114 -1.73795534231555 7.54607810843823E-006 -0.366707964346784 8.61223824073754E-006 -7.83470300275382 0.077896677628285 -80.5439197791082 
0.95             0.999999691148792 -1.75649957236576 7.54257650069955E-006 -1.16304416298469 8.43285893391578E-006 -7.44892265224786 0.0764461190733334 -85.6425477863872 
0.96             0.999999642745768 -1.77504601280873 7.54853742863036E-006 -1.89820787484526 8.26230966099615E-006 -6.96155586848571 0.0751684894230949 -90.5583597495896 
0.97             0.999999587897256 -1.79359465529506 7.56326588756683E-006 -2.57369471254401 8.09987128164491E-006 -6.38691252960128 0.0740435875754746 -95.2905615613579 
0.98             0.999999526429057 -1.81214549449171 7.58615423685637E-006 -3.19092267395839 7.94483686398142E-006 -5.73742381774611 0.0730525438939658 -99.8399762753184 
0.99             0.999999458169359 -1.8306985276618 7.61666933084117E-006 -3.75122953501146 7.79653481266496E-006 -5.02392097154647 0.0721779749185798 -104.208870302693 
1                0.999999382947807 -1.84925375431099 7.65434164830752E-006 -4.25587101687244 7.65434164825157E-006 -4.25587101677509 0.0714040586178877 -108.400747356494 
