! Touchstone file from project FYP_Sim_Actual_Separated_Ports
! Exported from HFSS 13.0.2
# GHZ S MA R 50.000000
! Terminal data exported
! Port[1] = PD2_Incision_Port_T1
! Port[2] = Radiating_Plate_T1
0                0.999999993166057 0                1.45037789665743E-010 180              1.44930555548836E-010 180              0.999102103406585 0                
0.01             0.999999999999441 -0.0196735886925372 1.6878755101413E-010 131.767749720617 1.68632695307153E-010 131.784075029679 0.99827594825577 -7.4757228214586 
0.02             1.0000000251859  -0.0393502328636479 2.79360124219756E-010 89.2095436706743 2.79104160488449E-010 89.2196474951486 0.996385838805023 -14.8604253955479 
0.03             1.0000001163911  -0.0590391729091283 5.51948105439536E-010 57.5393127091974 5.51611779178721E-010 57.5455112764    0.994678288838791 -22.1798339799354 
0.04             1.0000024224837  -0.078849981728008 1.10692846024542E-009 30.4080084792571 1.10661986001754E-009 30.4132286759433 0.993138353169053 -29.4533316353585 
0.05             1.00000006504494 -0.0982700728069062 2.0478272425472E-009 0.860707951389177 2.04772710161973E-009 0.861097923662119 0.991660234093369 -36.6800314299316 
0.06             0.999999989967434 -0.117978202515288 3.16533117701339E-009 -30.9182350021135 3.16533743504163E-009 -30.9229863802486 0.990216702049558 -43.8542332607681 
0.07             0.999999994326834 -0.137662332611576 4.16698220555951E-009 -58.5864634635471 4.16692461435041E-009 -58.5903096453239 0.988826389448667 -50.9712767879708 
0.08             1.00000000146285 -0.157342772838178 5.30284387690048E-009 -81.3276836168817 5.30289330433409E-009 -81.3287419190202 0.987519745468824 -58.0290581109308 
0.09             1.00000000428216 -0.177023250749081 7.02709626935155E-009 -104.762176561559 7.02738889897396E-009 -104.762577706174 0.98631737096266 -65.028278520939 
0.1              0.99999999987966 -0.19670510588209 9.1929821136609E-009 -137.649121662786 9.19301890838283E-009 -137.650043243574 0.985215686164067 -71.9722738524016 
0.11             0.999997601071157 -0.216385209753289 3.90346819807122E-008 -151.803360669017 2.76271331980552E-008 -86.4358207653743 0.984109251626451 -78.8674785949221 
0.12             0.999994654482408 -0.235968905975062 6.85692037161014E-008 -152.634368420802 5.02056327979169E-008 -83.5865724670169 0.983064208566298 -85.7042929285358 
0.13             0.999993649621642 -0.255432898219099 9.68181056922003E-008 -152.402313242276 7.2201443957057E-008 -86.3037330977899 0.982077638775948 -92.4874493165317 
0.14             0.999995482463399 -0.274963567544958 1.23121094000452E-007 -151.966565358417 9.29519787008365E-008 -90.7417131793817 0.981133618309083 -99.2231204058764 
0.15             0.999997465846374 -0.294616242228226 1.4681680118746E-007 -151.532593140637 1.12077205632348E-007 -96.0852674674598 0.980202837520232 -105.918776621191 
0.16             0.999998669744951 -0.314316397717809 1.67205669336641E-007 -151.169262049931 1.29284431128423E-007 -102.125503882191 0.979242461779279 -112.583053701843 
0.17             0.999999319423232 -0.334025377257038 1.83516347816112E-007 -150.898524233212 1.44341553046883E-007 -108.860837944551 0.978196123627752 -119.2256376854  
0.18             0.999999665254607 -0.353732711082556 1.94861432590484E-007 -150.716052211827 1.57081176003274E-007 -116.401726312178 0.976993939274948 -125.857172625742 
0.19             0.999999848944946 -0.373436559918331 2.00173454297785E-007 -150.589518285911 1.67421276258746E-007 -124.953840715904 0.975552447760298 -132.489194262639 
0.2              0.999999944574602 -0.393137190974904 1.9810708903634E-007 -150.436357433188 1.75404665517926E-007 -134.836449801814 0.973774378284926 -139.134090924417 
0.21             0.999999991500083 -0.412835248874364 1.86884676157132E-007 -150.054477489748 1.81267605432791E-007 -146.534573970271 0.97154816006459 -145.805091074182 
0.22             1.00000001136701 -0.432531338706908 1.64060574966891E-007 -148.889322509224 1.85566783916898E-007 -160.811178209044 0.968747101137145 -152.516274983813 
0.23             1.00000001648151 -0.452225950295732 1.26326337470082E-007 -144.990623643016 1.89479239464443E-007 -178.964599875052 0.965228181241147 -159.282605888577 
0.24             1.00000001401987 -0.471919465867006 7.22121484269969E-008 -126.851974689951 1.95868646825172E-007 156.513611871282 0.960830434603586 -166.119973474221 
0.25             1.00000000822857 -0.491612182990927 7.07790898303767E-008 -39.5093728904205 2.14675814761811E-007 120.290141039646 0.955372949052337 -173.045239520547 
0.26             1.00000000162125 -0.511304335819807 2.27582576122474E-007 -12.2352270117464 2.91952198884623E-007 62.4314992019342 0.948652588756461 179.923728140845 
0.27             0.99999999565434 -0.530996111494444 5.60818622557567E-007 -12.8252786797502 5.39540307653434E-007 -24.2833361450553 0.940441672030546 172.768051498191 
0.28             0.999999991120696 -0.550687662096082 1.47898029138898E-006 -26.9433002784502 6.51378520807705E-007 -108.248865304349 0.93048601718389 165.467890900758 
0.29             0.999999988385017 -0.570379113161682 4.41041082110698E-006 -103.666997708078 6.47786118210621E-007 -153.917531352904 0.918504020186852 158.002573529347 
0.3              0.99999998752729 -0.590070569682472 2.04412273035971E-006 -172.55877797354 6.95968846770233E-007 179.030386719226 0.904187749774688 150.350831808538 
0.31             0.99999998843129 -0.609762120271316 1.29698365120926E-006 165.838837411685 7.88734245034655E-007 160.046275825375 0.887207416325343 142.491180397318 
0.32             0.99999999083939 -0.629453839969282 1.04635510535425E-006 148.060654716758 9.18740911604729E-007 145.349969379333 0.86722092281182 134.40245104214  
0.33             0.99999999438642 -0.649145791993038 9.83084661476082E-007 130.44699103939  1.08496087785839E-006 133.252280450839 0.843890400302632 126.064481999113 
0.34             0.999999998620734 -0.668838028596072 1.03971120117687E-006 113.96857034341  1.2898103117456E-006 122.841476090028 0.816907438362309 117.458917054445 
0.35             1.00000000301824 -0.688530591116092 1.1931217957609E-006 99.9347739529517 1.53796986043201E-006 113.556380334727 0.786027842267666 108.570004090038 
0.36             1.00000000699437 -0.708223509199007 1.43310202224963E-006 88.6648230359956 1.83604324789993E-006 105.017086791772 0.751114909018486 99.3851959720776 
0.37             1.00000000991954 -0.727916799124065 1.75829371978136E-006 79.7412063489188 2.19256242117957E-006 96.9455940664055 0.712187370436064 89.895259508285  
0.38             1.00000001114556 -0.747610461114539 2.1756429763557E-006 72.5641484182549 2.61813081490117E-006 89.1233129566699 0.669464780916551 80.0935182586884 
0.39             1.00000001005468 -0.767304475537407 2.70023113923891E-006 66.6121202931676 3.12556906562671E-006 81.3658471677523 0.623400417593485 69.9738312877675 
0.4              1.00000000614897 -0.786998798054473 3.35612090033931E-006 61.4899943097372 3.72989321860587E-006 73.5069127600627 0.574691410330114 59.5269815550774 
0.41             0.99999999920746 -0.806693354255829 4.17880821000264E-006 56.9060877772681 4.44783441612108E-006 65.3879660043937 0.524259231033341 48.7353354788179 
0.42             0.999999989548081 -0.826388035396891 5.21997502009263E-006 52.6380692199406 5.29639072046137E-006 56.8526304172064 0.473200788595208 37.5659374563917 
0.43             0.999999978435624 -0.846082699045659 6.55592620337404E-006 48.5026676572179 6.28960416863013E-006 47.7469581049381 0.422718991642042 25.9626340989329 
0.44             0.999999968652255 -0.865777182137752 8.30259779230355E-006 44.3287930030028 7.4325519284309E-006 37.9284092138468 0.374048034670421 13.8385186193757 
0.45             0.999999965151693 -0.885471338501891 1.06432655330385E-005 39.9283638910917 8.71199690411356E-006 27.2875829105388 0.328389378060857 1.07136105882139 
0.46             0.999999975493512 -0.905165114235844 1.38825759637471E-005 35.0538991796669 1.00853719751447E-005 15.7847586637429 0.286867760860566 -12.4924846801879 
0.47             1.00000000941407 -0.924858661770603 1.8558956332691E-005 29.318833545605  1.14744910739822E-005 3.49415215437488 0.250502767614232 -27.0153403441003 
0.48             1.00000007672529 -0.944552454175486 2.56937508263743E-005 22.0175314844372 1.27745836978332E-005 -9.36786966203742 0.220172314593942 -42.6116164638248 
0.49             1.00000018341118 -0.964247306309331 3.73493853859353E-005 11.6596515361739 1.38840681182531E-005 -22.4640757720408 0.196528170724671 -59.2492885738566 
0.5              1.00000032762114 -0.983944207679393 5.74350412861345E-005 -5.29099584964794 1.47420692327204E-005 -35.4182460078315 0.179836645283438 -76.6412475530798 
0.51             1.00000049867528 -1.00364399752199 8.63844968249171E-005 -36.0539495042227 1.53476346708338E-005 -47.9196427500447 0.16979503129576 -94.2236615236072 
0.52             1.00000068058929 -1.02334708109264 9.32350981551358E-005 -78.034859718357 1.57487731286069E-005 -59.7904378432925 0.165475914309782 -111.308446869975 
0.53             1.00000085780825 -1.04305337719574 7.39963238762155E-005 -107.77971658244 1.60151853690477E-005 -70.9909518795526 0.165514445822733 -127.334574898837 
0.54             1.00000101932486 -1.06276248443459 5.82857832722625E-005 -124.593588963069 1.62148650410235E-005 -81.5834728986975 0.168446284229523 -142.022878596274 
0.55             1.00000115958087 -1.08247390527745 4.86559475549531E-005 -135.498069939736 1.64027763867159E-005 -91.6876520142144 0.172988109099404 -155.356797561502 
0.56             1.00000127717613 -1.10218720016343 4.26736363706551E-005 -143.800960513798 1.6618989724042E-005 -101.446426600205 0.178157514917284 -167.474922033687 
0.57             1.0000013730321  -1.12190204689732 3.88068231583171E-005 -150.905897773657 1.68910436774464E-005 -111.00601478268 0.183267237874413 -178.572773909767 
0.58             1.0000014489484  -1.14161823827089 3.62375358031964E-005 -157.484282823293 1.72369590623013E-005 -120.506440762536 0.187866127245372 171.154013151305 
0.59             1.00000150675107 -1.16133565495674 3.45112884587065E-005 -163.903591212208 1.76672835474093E-005 -130.077959624431 0.191674027555998 161.533290462884 
0.6              1.00000154789787 -1.18105423542165 3.33562637576124E-005 -170.39074532758 1.81856393725168E-005 -139.839730114789 0.194528797945723 152.421994534755 
0.61             1.00000157335503 -1.20077395122808 3.25949789290286E-005 -177.099851447261 1.87876918671055E-005 -149.898131910716 0.196348339447229 143.704150469645 
0.62             1.00000158361048 -1.22049478910397 3.209895840671E-005 175.858875516827 1.94587012031833E-005 -160.342750152818 0.197105124318709 135.286536201391 
0.63             1.00000157874603 -1.240216738635  3.17641939050428E-005 168.408369325268 2.01702351383492E-005 -171.238483183085 0.196809800873653 127.094211112392 
0.64             1.00000155853127 -1.25993978401917 3.14980447455587E-005 160.503758550256 2.08774468831277E-005 177.386924277351 0.195500953904047 119.066654513577 
0.65             1.00000152252425 -1.27966389865283 3.12140526495473E-005 152.136770314134 2.15194579070579E-005 165.558572622116 0.193238846219278 111.154656957193 
0.66             1.0000014701745  -1.29938904179491 3.08335063232909E-005 143.341678572552 2.20259472510473E-005 153.368391463556 0.190101599216   103.317899888333 
0.67             1.00000140092819 -1.31911515698187 3.02926067328872E-005 134.198406835593 2.23313239664095E-005 140.97884176103  0.186182737861751 95.5231191361595 
0.68             1.00000131433494 -1.33884217219289 2.9552332885221E-005 124.828421099466 2.23929662968121E-005 128.608051154242 0.181589357787206 87.7427754118772 
0.69             1.0000012101539  -1.35857000199072 2.86060702629283E-005 115.381236987949 2.22048593411933E-005 116.495779389622 0.176440403868297 79.9542115133202 
0.7              1.00000108845304 -1.37829855199239 2.74801379243514E-005 106.013711297263 2.17984929386977E-005 104.861384185145 0.170864693662181 72.1393502337931 
0.71             1.00000094969212 -1.39802772606035 2.62257257334417E-005 96.8683449106343 2.12306433524507E-005 93.8707040084081 0.164998351188342 64.2850800701856 
0.72             1.00000079477684 -1.41775743656684 2.49054119900606E-005 88.0574802084704 2.05656874053866E-005 83.6226684800876 0.158981149238088 56.3845895180962 
0.73             1.00000062507178 -1.43748761803173 2.35797704454918E-005 79.657018667417  1.98611627764256E-005 74.1546460163    0.152950682810579 48.4400203131294 
0.74             1.00000044236561 -1.45721824448769 2.22982585101188E-005 71.7087993742997 1.91604983180682E-005 65.4580823565313 0.147031888056307 40.4667643602848 
0.75             1.00000024879935 -1.47694935128572 2.1095495710481E-005 64.2280609094443 1.84919740498257E-005 57.4958964470267 0.141316589605343 32.4989085344744 
0.76             1.00000004680792 -1.49668106291599 1.99916866788285E-005 57.212249873876  1.78710922683266E-005 50.216797488375  0.135824191998414 24.5917123774856 
0.77             0.999999839212583 -1.51641362958131 1.89952126262154E-005 50.6487591045372 1.73039614453919E-005 43.5652074154562 0.130440231007523 16.8061302756919 
0.78             0.999999629792652 -1.53614747450148 1.81057934266964E-005 44.5206587828727 1.6790379556627E-005 37.4873749123103 0.124883618713992 9.14341929862015 
0.79             0.999999425049399 -1.55588324125871 1.73173153309934E-005 38.810471176907  1.63261515106996E-005 31.9348423696833 0.118886126502725 1.42767943166299 
0.8              0.999999238386602 -1.57562177228038 1.66199747805203E-005 33.5024860228729 1.59046178279844E-005 26.8663542155935 0.112664138252804 -6.68882058636587 
0.81             0.999999097152334 -1.5953637763142 1.60017009255561E-005 28.5842135192184 1.55175285534531E-005 22.2490451126021 0.107010894851966 -15.4064654397449 
0.82             0.999999045022384 -1.61510874037846 1.54489413997286E-005 24.0475267459016 1.51554081009899E-005 18.0595399353774 0.102577635472339 -24.5506355415356 
0.83             0.99999911450619 -1.63485350688825 1.49469059670245E-005 19.8899929594861 1.48075094953836E-005 14.2855168112268 0.0994387757201823 -33.7919813356042 
0.84             0.999999270173091 -1.65459373958217 1.4479313456642E-005 16.116926680577  1.44613868400396E-005 10.9283789930303 0.0973437979281793 -42.8918475043624 
0.85             0.999999421372356 -1.67432875360151 1.40275980023871E-005 12.7449173475886 1.410202741702E-005 8.00804977432187 0.0960029374704609 -51.7324018416725 
0.86             0.999999512911807 -1.6940618590336 1.35693874467111E-005 9.80818996530116 1.37103618206091E-005 5.57181312673474 0.0951749461500555 -60.2651524124457 
0.87             0.999999547554889 -1.71379629401147 1.307581367564E-005 7.3706669132079  1.32607693129048E-005 3.71130117344509 0.0946618680605963 -68.4708305877508 
0.88             0.999999547715643 -1.73353355743315 1.25067126943738E-005 5.55054080384118 1.27168367397259E-005 2.59731751676124 0.094289838388801 -76.3384657626069 
0.89             0.999999531590058 -1.75327401125546 1.18016917921952E-005 4.57567718416423 1.20240092628337E-005 2.55821827023061 0.093898431866097 -83.8533309845207 
0.9              0.999999509518996 -1.77301758856339 1.08626468184876E-005 4.92781990636831 1.10971271369942E-005 4.28112563604343 0.0933420466091173 -90.9876429137347 
0.91             0.999999486375025 -1.79276412285494 9.51888210820147E-006 7.80705738613815 9.80457255352252E-006 9.43406202466602 0.0925035071657234 -97.6932172101959 
0.92             0.999999463983098 -1.81251345544162 7.47657752898462E-006 17.2409728928794 8.01029929341613E-006 23.1451156235643 0.0913179396966516 -103.899072807853 
0.93             0.999999442620449 -1.83226545896169 4.82321998665068E-006 56.0164979086056 6.51958074767756E-006 64.3028451123347 0.089799223012456 -109.519009497322 
0.94             0.999999421830724 -1.85202003589529 1.04565822969137E-005 144.499200580473 1.25851010589497E-005 132.842190089361 0.088053766625467 -114.472576793739 
0.95             0.999999400845646 -1.87177711195299 4.11514650659499E-005 -158.492166644817 3.62337948418111E-005 -170.529788434102 0.0862651959469406 -118.715724738467 
0.96             0.99999937879833 -1.89153662994469 5.10020993500693E-005 -85.3471671560897 4.67192943089911E-005 -107.870507928102 0.0846467005548432 -122.267605246463 
0.97             0.999999354828176 -1.91129854520536 3.78862580313693E-005 -60.921398690661 3.76680438125093E-005 -80.6459916256667 0.0833798378571624 -125.216791943984 
0.98             0.999999328129399 -1.93106282241821 3.209816864708E-005 -52.970866241848 3.23203132016639E-005 -70.515878385667 0.0825697177068816 -127.700736582727 
0.99             0.999999297970306 -1.95082943345457 2.92841268318125E-005 -49.7023378325335 2.94496333764131E-005 -66.1443216825862 0.0822346827473104 -129.869634440168 
1                0.999999263697507 -1.97059835589812 2.77651643968296E-005 -48.3190461193246 2.77832087498389E-005 -64.2505553010889 0.0823257843523407 -131.853952156649 
