! Touchstone file from project FYP_Sim_Actual_Separated_Ports
! Exported from HFSS 13.0.2
# GHZ Z MA R 50.000000
! Terminal data exported
! Port[1] = PD1_Void_Port_T1
! Port[2] = Radiating_Plate_T1
0                640936.51806841  -89.9989970617144 0.00787819164459259 113.820634726174 0.000563424207499592 -17.8784766988293 1184.33879452247 -89.255182660985 
0.01             427016.553899886 -90.0000153916313 0.00516562932383204 107.070380035903 0.000255330501249756 -29.2239509814897 789.860718889685 -89.2425144920667 
0.02             213508.02194858  -90.0027995462486 0.00280952470588696 93.7335331490969 8.46781742095024E-005 -104.488646952586 395.648723386685 -89.1937768568097 
0.03             142343.0881786   -90.0063415443797 0.00247333492215313 80.6404903743516 0.000117087767162261 -138.653288961755 263.235750133857 -89.1923315664445 
0.04             106767.736187903 -90.0050812193074 0.00405634995275492 27.9487300634016 0.00017172269659657 -151.528738733395 196.297708495039 -89.2004139256515 
0.05             85412.5236716861 -90.0006823069476 0.000723707857599517 -109.579613821776 0.000269122434948534 -165.452371716812 155.638296432034 -89.2004043578436 
0.06             71174.0264223375 -89.9997325216551 0.00040898727826376 155.556825939716 0.000434791716602371 167.28291280516  128.157832822082 -89.1916403137312 
0.07             61004.3082829721 -89.9997119515535 0.000571957289458145 123.861703842109 0.00052034874852555 126.547301163714 108.220047385756 -89.1767739436575 
0.08             53377.2814554644 -89.9998561197568 0.000762193536584938 103.843822521471 0.000493875350908686 97.8351256282626 92.9960069083228 -89.1579276698245 
0.09             47445.2137913674 -90.0000018232852 0.000963787361777323 74.9579148117962 0.000573614985920341 74.0693845350696 80.9085747519786 -89.1357948688077 
0.1              42699.5470420467 -90.0001079589968 0.000874994832567791 35.9449346957016 0.000731558305792275 15.1516269963778 71.0083294400091 -89.1093579841218 
0.11             38997.0809374665 -89.9500860206084 0.000492432567685995 114.566332243103 0.000762676619497327 75.6099422861337 62.6885110918802 -89.0712900468249 
0.12             35730.3109793825 -89.9824870776371 0.000925239567307173 158.688593959516 0.00105996839522327 108.213205329547 55.5607854514471 -89.0247895443335 
0.13             32963.1938628918 -89.9924159451212 0.00135341447737741 172.004993230749 0.00134899952288741 127.402636831958 49.3413679557516 -88.9682511237459 
0.14             30593.9022946405 -89.996391473936 0.00168979509872608 179.732587501859 0.00159538527051945 141.982844492354 43.8264917854932 -88.8987245137604 
0.15             28542.8694922323 -89.9982077977159 0.0019527605298631 -174.042899523776 0.00180684503513497 154.684440234872 38.8656107865745 -88.8115198130094 
0.16             26750.0344298763 -89.9990993587673 0.00216274214839186 -168.181188359231 0.00199497671744715 166.568569215932 34.3446246266549 -88.6994773908975 
0.17             25169.4897993316 -89.9995539523935 0.00233590501392318 -162.202986482136 0.00216977005629851 178.161584449008 30.1749964462509 -88.5516785058016 
0.18             23765.5932444474 -89.9997889631997 0.0024846982561037 -155.824018197441 0.00233907682921697 -170.211450770222 26.2864707495061 -88.3511266334366 
0.19             22510.2606612258 -89.9999093599228 0.00261893189139563 -148.813631688087 0.00250876646456153 -158.306799101315 22.6220707677282 -88.0703770536455 
0.2              21381.0657177828 -89.9999687278747 0.00274663246125955 -140.93475451703 0.00268271318472162 -145.911432738798 19.1346006649618 -87.6627157078633 
0.21             20359.8834991935 -89.9999954985161 0.00287454603366197 -131.907539532852 0.00286234999866367 -132.82036666647 15.7842250652883 -87.0426363293128 
0.22             19431.9060309132 -90.0000051438649 0.00300810673342951 -121.380394859945 0.00304564492427332 -118.830133051471 12.5370228266272 -86.0368672298117 
0.23             18584.9162725822 -90.0000061964842 0.00315038351077652 -108.908139539933 0.00322551060776798 -103.747753901889 9.36510771887493 -84.2375243151801 
0.24             17808.7448297138 -90.0000033642265 0.00329900769949514 -93.9551134487384 0.0033881553045984 -87.4191452211836 6.2521906093556  -80.4214822985265 
0.25             17094.8579171185 -89.9999992029442 0.00343999445154728 -75.9754160354311 0.00351292381437357 -69.7781202005791 3.23895030208133 -68.7744712229239 
0.26             16436.0410135122 -89.9999950418836 0.00354069914849652 -54.6657193328384 0.00357618104664313 -50.9014372169954 1.35324393801941 6.33855741673874 
0.27             15826.1532413732 -89.9999915079154 0.00355528950486166 -30.4289147398313 0.00356051013609573 -31.0296817643609 3.71869504741068 65.063360696329  
0.28             15259.9346816198 -89.9999888277207 0.00345946904038204 -4.72031069547947 0.0034651851883625 -10.5091822430769 6.9351258525475  74.4818915740383 
0.29             14732.853769825  -89.9999870039194 0.00328487997816027 20.3562166289105 0.0033095183220552 10.3374358480226 10.3600478623984 77.5862780863663 
0.3              14240.9853685653 -89.9999859186963 0.00309467824585417 43.0285978293204 0.0031257722890333 31.3334886257877 13.9865084122445 78.8290161661515 
0.31             13780.912551929  -89.9999853954912 0.00293242976109395 62.3919503948264 0.00294831978205025 52.4867293173958 17.8586587703588 79.2167103765891 
0.32             13349.6468887911 -89.9999852354791 0.00280798897546244 78.2447913115379 0.00280731085229831 73.9370779637705 22.0413253271835 79.0781729104717 
0.33             12944.5632818406 -89.9999852387854 0.0027109444773822 90.7021479932249 0.00272877965632471 95.8529645589343 26.6188756619638 78.5290331540934 
0.34             12563.346351825  -89.9999852166068 0.00262331471160772 99.8737201202402 0.00273860294985307 118.3148501301   31.6994425060394 77.5914170225174 
0.35             12203.9460479573 -89.9999849980718 0.00252494244418582 105.611209572608 0.00286776732387598 141.221685133252 37.4213516638774 76.2300124903843 
0.36             11864.5406831361 -89.999984434066 0.00239651241427662 107.201857244064 0.00315829823809384 164.268376785228 43.9601564954778 74.3596761243414 
0.37             11543.5059837889 -89.9999833994219 0.00223114890709175 102.781757385553 0.00367102416639947 -172.974061870509 51.532410977234  71.8392373643653 
0.38             11239.3890422566 -89.999981794319 0.00208770182271588 88.3996115515332 0.00449705570022895 -150.918424195941 60.3848556115546 68.4561412070861 
0.39             10950.8862886441 -89.9999795454743 0.00225697712302613 60.4899219633009 0.00577232350638473 -129.858973762767 70.7385388160693 63.9065468879198 
0.4              10676.824776332  -89.9999766075213 0.00333731708336059 28.9321097184835 0.00768331955094187 -109.953852609993 82.6162569330577 57.7866580700065 
0.41             10416.1462135429 -89.999972964795 0.00579729863662642 5.37870226457136 0.0104199072965981 -91.2384060889855 95.4303179278953 49.6451678579566 
0.42             10167.8932818051 -89.9999686337481 0.00992899274445755 -12.996779138699 0.013977944711011 -73.5678441694507 107.309863813328 39.2053849592197 
0.43             9931.19786780648 -89.9999636661581 0.0158567292522556 -30.1652714830054 0.01778546415295 -56.4780010449464 114.873317976529 26.8310956942199 
0.44             9705.27090321208 -89.9999581536123 0.0232677086902608 -47.1943884452646 0.0206431045883504 -39.2705289359246 115.05138714867  13.8787368572236 
0.45             9489.39356161631 -89.9999522343182 0.0316081933319029 -63.6688461848357 0.0216559977016392 -21.6052920769957 108.085528524826 2.16764698807909 
0.46             9282.90960558775 -89.9999461022167 0.0405750681838476 -79.3852528252593 0.0211053386676424 -3.84764063451475 97.2245855663204 -7.1120533591255 
0.47             9085.21871160114 -89.9999400171261 0.0499537668976566 -94.8464483119351 0.019909010036718 13.4137409872797 85.6732133994129 -13.7410367468392 
0.48             8895.77062920685 -89.9999343168195 0.0589031523384573 -110.623694749042 0.0187733796369521 29.8404181065688 75.1255551991278 -18.0421066534193 
0.49             8714.06005462643 -89.9999294325845 0.0657432732151146 -126.517938830988 0.0180177652250966 45.3693908993009 66.1141470698558 -20.4532082055519 
0.5              8539.62211818208 -89.9999259087849 0.0691219614955181 -141.399120648651 0.0177380461862714 60.0882062107371 58.6372608693363 -21.3489985970842 
0.51             8372.02840024743 -89.9999244289361 0.0693600326858021 -154.065056767053 0.0179528805735687 74.1526770346372 52.5223147637894 -21.0109210923684 
0.52             8210.88340279186 -89.9999258498358 0.0679373193408135 -164.083675483822 0.0186752918565267 87.7566138476081 47.5760197061993 -19.6478240439174 
0.53             8055.82141444882 -89.9999312428224 0.0661882166160614 -171.741759388036 0.0199408925801591 101.128958832391 43.6326987838385 -17.4259567303574 
0.54             7906.50371590447 -89.9999419434941 0.0648414276173052 -177.599583523323 0.0218169224001333 114.544098518632 40.5626112693275 -14.4957347559154 
0.55             7762.61607902168 -89.9999596125899 0.0641807277290993 177.795936102946 0.0243985595275158 128.338524259732 38.2665321584469 -11.0114212764706 
0.56             7623.86651838221 -89.9999863096144 0.0642691182946915 174.000619520159 0.0277822723313151 142.924334265086 36.6667133462972 -7.14149506684315 
0.57             7489.98325801161 -90.0000245793532 0.0650777737718599 170.673547779127 0.0319853102887081 158.772279501587 35.6981684636677 -3.0682678159198 
0.58             7360.7128789072  -90.0000775486676 0.0665394965974247 167.555267530298 0.0367687635566992 176.297758226073 35.3019799996725 1.02237736007159 
0.59             7235.81861470776 -90.0001490228322 0.0685626402277218 164.447718831999 0.0414087348712018 -164.440581034452 35.4212772987508 4.95690442026557 
0.6              7115.07876290825 -90.0002435500198 0.0710269837450367 161.201899217668 0.0447666330425141 -144.146817393545 35.9997097009645 8.58941186851024 
0.61             6998.28517638422 -90.0003663940575 0.0737732899582536 157.713517201896 0.0460466183229033 -124.271037328301 36.9815955667072 11.8110264564979 
0.62             6885.24179875579 -90.0005233342261 0.0765952006752007 153.924942522338 0.0455126962369629 -106.224495900858 38.312692572389  14.5515681263995 
0.63             6775.76321386909 -90.0007201333419 0.0792421519440542 149.830268948936 0.0441099413461497 -90.6419590687771 39.9407458510438 16.7750399309038 
0.64             6669.67319092382 -90.000961333055 0.0814407272314274 145.478628573141 0.0426826090448119 -77.4235732056107 41.8154101550077 18.4720486320695 
0.65             6566.8032369996  -90.0012478303075 0.0829352357924914 140.970137705015 0.0417092910903429 -66.1423400694005 43.887549946906  19.6519586262959 
0.66             6466.99125673358 -90.0015724819467 0.0835363618880161 136.440890414394 0.0414115587903232 -56.3218394441572 46.1081694216622 20.3364265619749 
0.67             6370.0806110867  -90.0019129405522 0.0831572531208886 132.038689843273 0.0419050917283893 -47.5278421627158 48.4273186937745 20.5548528008855 
0.68             6275.92022224234 -90.0022217237842 0.0818198365119878 127.896814949588 0.0432979164399402 -39.3630014121076 50.7933180436359 20.3415836884833 
0.69             6184.36688766723 -90.0024166125138 0.0796305934047342 124.114597683886 0.0457495029458403 -31.4213610765037 53.1525807295404 19.7343888476298 
0.7              6095.29133705066 -90.0023816168354 0.0767410745891471 120.749661071701 0.0495126735635125 -23.2158502306655 55.4502093478377 18.7736793767545 
0.71             6008.58879157042 -90.0019981285635 0.0733117488100915 117.820792392612 0.0549535311219335 -14.0653574894216 57.6313906882536 17.502004572231  
0.72             5924.19132752823 -90.0012228672744 0.0694895884825922 115.316846081384 0.0624539741493401 -2.91891712833326 59.6434291487779 15.9634985700726 
0.73             5842.07351238691 -90.0001864705995 0.065399694788409 113.206994876837 0.0717777695630374 11.8212463157315 61.4380750941144 14.2031126516651 
0.74             5762.24054187725 -89.9992138387652 0.0611458550138452 111.449551856677 0.0799177115832792 31.8581797145634 62.9736837316075 12.2656437051906 
0.75             5684.69751229498 -89.9986766678684 0.0568145614681757 109.998531496595 0.0794410503611088 56.292860548554  64.2167479135718 10.1947294609366 
0.76             5609.41527024898 -89.9987619633227 0.0524790741318604 108.80816116993  0.067782726631101 79.4203843760503 65.1425213013829 8.032093677048   
0.77             5536.31445147746 -89.9993743874755 0.0482022340573308 107.835865656789 0.0529663155752173 96.7704490379856 65.7347659713786 5.81735601888481 
0.78             5465.2758028484  -90.0002480708643 0.0440379887305787 107.044331797442 0.040722834999559 108.674297545145 65.9850344436099 3.5886412110388  
0.79             5396.16531238712 -90.0011236911341 0.0400320733354173 106.403170202023 0.0317314476370336 116.923139975009 65.8922014937716 1.38400622211112 
0.8              5328.85649628981 -90.0018441162835 0.0362223618047935 105.890286803531 0.0252165820389875 122.896912228084 65.4630329799624 -0.756648851798912 
0.81             5263.2411303721  -90.0023548969449 0.0326392356833258 105.49254985712  0.0204144887143863 127.450052908938 64.7142495484361 -2.78996868576504 
0.82             5199.2301753977  -90.0026650715105 0.0293059996233025 105.205031485185 0.0167914601589207 131.103511315627 63.6757301330048 -4.66899284198005 
0.83             5136.7501378235  -90.00281035613  0.0262390962264212 105.028249911755 0.0139978296457709 134.185978504084 62.393384718891  -6.34562336140554 
0.84             5075.73867321254 -90.0028311632234 0.0234478805811803 104.963539485931 0.0118042658346133 136.911552148659 60.9294300990597 -7.77611422465881 
0.85             5016.14102849584 -90.0027629252152 0.0209340577773532 105.007737750299 0.0100568300680018 139.419916542135 59.3581956025982 -8.92849166828837 
0.86             4957.90759962825 -90.0026333817448 0.0186913101958242 105.149150784663 0.00864876109001897 141.798065254585 57.7574975160077 -9.78929932073492 
0.87             4900.99239163841 -90.0024629509695 0.0167057482969015 105.366488483161 0.00750332102414844 144.0944199967   56.1980842235734 -10.3667196629687 
0.88             4845.35209053904 -90.0022661076825 0.0149574488591139 105.631094812819 0.00656352090234283 146.330404577077 54.7348746177185 -10.6885534641684 
0.89             4790.94551479526 -90.002052854419 0.0134227717550226 105.911246090431 0.00578599496706086 148.510727822499 53.4027301734894 -10.7959271534528 
0.9              4737.73329041933 -90.0018299649479 0.0120768063785152 106.176621551047 0.0051372676458195 150.631822304297 52.2171665588109 -10.735313046504 
0.91             4685.67765352041 -90.0016019379354 0.0108953677915545 106.401503167814 0.00459133407419203 152.687751216939 51.1784415218513 -10.5515307955571 
0.92             4634.7423237686  -90.0013716930001 0.00985627586772952 106.566227690821 0.00412795244381998 154.673549155189 50.276836821519  -10.2832371652812 
0.93             4584.89241653606 -90.0011410650669 0.00893995102214386 106.657185982762 0.00373135080260611 156.586562076253 49.4974625530849 -9.96105087393335 
0.94             4536.09437575728 -90.0009111500432 0.0081295153437721 106.665967176849 0.00338921387353086 158.426555193452 48.823798575634  -9.60762831514277 
0.95             4488.31591772291 -90.0006825443862 0.00741060820887878 106.588189332297 0.00309188607120116 160.195242680244 48.2398901289292 -9.2388065384104 
0.96             4441.5259806129  -90.0004555102605 0.00677107705766878 106.422363168035 0.00283175106306129 161.895661444052 47.7314690007495 -8.86510835284177 
0.97             4395.69467711295 -90.0002300890256 0.00620064224054835 106.168950268095 0.00260275520729838 163.531602647056 47.2863560678638 -8.49318697315282 
0.98             4350.79324883513 -90.0000061790036 0.00569058586557358 105.829655226468 0.00240004546206967 165.107177279328 46.8944490589345 -8.12702244279479 
0.99             4306.79402199234 -89.999783588622 0.00523348372602243 105.406929666646 0.00221969603414827 166.626520095289 46.5475081533775 -7.76882811653744 
1                4263.67036414607 -89.9995620725852 0.0048229830185193 104.903644314317 0.00205850241528799 168.093607233356 46.2388692652276 -7.41969687437752 
