! Touchstone file from project FYP_Sim_Actual_Separated_Ports
! Exported from HFSS 13.0.2
# GHZ Z MA R 50.000000
! Terminal data exported
! Port[1] = PD2_Incision_Port_T1
! Port[2] = Radiating_Plate_T1
0                470139.924519909 -89.9998900423203 0.00476775295581849 168.388172346746 0.000659790233293027 -18.8327645292285 1203.08545674287 -89.2574870649122 
0.01             313225.363858558 -89.9999541810687 0.0024827608451268 164.788138545852 0.000294983469008717 -30.4797647632697 802.368976549308 -89.2445055914588 
0.02             156612.15009727  -90.0000837288022 0.000769892015889625 154.02256039782  9.59244266882024E-005 -111.089329319121 401.926265267463 -89.1956304105422 
0.03             104407.578903284 -90.000162498122 0.000448925641090783 149.369479763417 0.000135695774612547 -146.999268168244 267.425218404364 -89.194497489611 
0.04             78305.3625342468 -90.0002129749242 0.000344092450180105 150.586550938238 0.000197394942381098 -161.158292539223 199.43556670239  -89.202891597882 
0.05             62645.5283945194 -90.0002095043575 0.000330241968653754 159.600874137646 0.000305304574939101 -176.132385123738 158.140786248926 -89.2031127155503 
0.06             52198.6711941289 -90.0003293774003 0.000588248798854383 179.600621425877 0.000492839401642646 155.86563125625  130.233900437153 -89.1944768023518 
0.07             44742.2657405384 -90.0002759469871 0.000839893360864326 81.4358026965507 0.000595076876576521 112.733967349498 109.989468094704 -89.1796389277146 
0.08             39148.8652517708 -90.0002167367176 0.000554515915435684 87.7797959405149 0.000551132801735412 81.5104082267513 94.5338208359136 -89.1607482452856 
0.09             34798.2162937744 -90.0001242231685 0.000849761773406268 74.5393844864184 0.00062649001901678 56.5820296511742 82.2648974443155 -89.1385547004863 
0.1              31317.5701834203 -89.9999914370223 0.000812686460171173 -4.69531094241058 0.000809302148254586 -5.30825260121358 72.2182807328455 -89.1121369181474 
0.11             28471.7078743903 -89.9995793919562 0.000926653059088675 25.6392503368699 0.000949245846456737 25.7041817618397 63.7823325342381 -89.0772838166023 
0.12             26099.8776805455 -89.9994499739303 0.00109851721519505 47.0818740768467 0.00113503597501559 46.8103687406523 56.5544399329933 -89.0352828876378 
0.13             24092.7431331837 -89.9994882145668 0.00127759915097044 63.7441837280428 0.00131459924111045 63.232680299989  50.2469515596468 -88.984055651793 
0.14             22372.1904451737 -89.9996210336242 0.00145133289113762 78.2013861712805 0.00147903846956653 77.717996103251  44.653426282888  -88.9202012724194 
0.15             20880.9251409984 -89.9997993762222 0.00161921558314539 91.8088496441562 0.00163122315925622 91.594890450766  39.6214218539573 -88.8386177907929 
0.16             19575.9684784109 -89.9999877484595 0.00178424911234499 105.361651780693 0.00177719629104453 105.593781858213 35.0354546162551 -88.7317943876306 
0.17             18424.4482501278 -90.0001576442928 0.00195029939641639 119.418238660417 0.00192396623482454 120.182821038517 30.8059401773179 -88.588554052713 
0.18             17400.7919033203 -90.0002829182366 0.00212103215496758 134.446855529446 0.00207884040570203 135.700591694985 26.8617892103586 -88.3917880129177 
0.19             16484.8053821472 -90.0003358741909 0.00229891122322814 150.888250034741 0.00224879956810308 152.404326388769 23.1453180082124 -88.114190454095 
0.2              15660.3275974344 -90.0002830650025 0.00248347739436638 169.162065284116 0.00243916000873794 170.476204921387 19.6086870297506 -87.7096819107023 
0.21             14914.2683744008 -90.0000796105379 0.00266857423371052 -170.391724813555 0.00265102639264399 -169.99759693302 16.2114313878726 -87.0945445269872 
0.22             14235.9072937521 -89.999660067354 0.00283968458347027 -147.656506318681 0.00287773632018149 -149.069250511011 12.9189704305358 -86.1005289160981 
0.23             13616.3728872294 -89.9989218694772 0.00297574393307652 -122.943539670894 0.00310229712046041 -126.981075674887 9.70265716528158 -84.3361582604928 
0.24             13048.247234518  -89.9976921551559 0.00306031203865921 -97.107954764479 0.00329985770291722 -104.190300619786 6.54500627815923 -80.6506708335694 
0.25             12525.2556583306 -89.9956541669755 0.00309607975943063 -71.3663238937616 0.00344750299906536 -81.3088086796737 3.48089099379478 -69.8054954550151 
0.26             12042.0061116015 -89.9921626871064 0.00310561215084887 -46.8557432777873 0.00353588497192486 -58.940884989374 1.38166680398616 -2.11284505005705 
0.27             11593.7322956775 -89.9857003979407 0.00311644468134374 -24.2828738596255 0.00357273549507106 -37.5025144720147 3.60272141501432 63.4313339864941 
0.28             11175.9472634748 -89.9718691297124 0.00314805348815475 -3.87420245357891 0.00357641219881677 -17.1348705732342 6.858775807213   73.844657843994  
0.29             10783.9113021155 -89.9329797616845 0.00320962426145164 14.4883928645665 0.00356716982074955 2.2736684912391  10.3425938120546 77.1956061510551 
0.3              10420.4637589925 -89.7625046363838 0.00330628943534103 31.1760150148594 0.00356547598599727 21.0767426845824 14.040002611576  78.5332679008633 
0.31             10149.3533758119 -89.8142833666097 0.00346189670451565 46.1481887610968 0.00361160245942263 39.2385523136669 17.9965809906358 78.9618337075091 
0.32             9817.8783278007  -89.983436472281 0.00362796238556967 59.8211005076905 0.00367094483587894 57.2017329755699 22.2806278427449 78.8363408348877 
0.33             9511.98823295419 -90.0071991194569 0.00383515851120131 72.7332235435421 0.00379770997887269 75.524547267772  26.9814955854348 78.2808307335601 
0.34             9228.41824613242 -90.0123744689808 0.00408709771869896 85.007693511796  0.0040274108177088 94.2814000321132 32.214090398553  77.3194530971597 
0.35             8962.75120788571 -90.0135080827303 0.0043882560008523 96.8675685924132 0.0044150564508647 113.479497956861 38.1258670715515 75.9156280629086 
0.36             8712.64061701219 -90.0133249691493 0.0047455255249787 108.566297584659 0.00504670877452199 132.875285418065 44.9045599582053 73.9803378324817 
0.37             8476.47775908127 -90.0125389475452 0.00516924957552853 120.433304117227 0.00605180407509444 151.946167188234 52.7823868719604 71.3655665868564 
0.38             8252.99562663709 -90.0113708749107 0.0056796781884009 132.969891562103 0.00761889793666879 169.989338399285 62.0240517553875 67.8479139291141 
0.39             8041.12829394923 -90.0098942445591 0.00633322139196371 146.993834215207 0.0100131346686075 -173.706632727944 72.8640210958515 63.1074907985211 
0.4              7839.94907723853 -90.008138209481 0.00731682926170573 163.671185653562 0.0135781612958802 -159.734140554547 85.3114242146479 56.719891510099  
0.41             7648.6379393855  -90.0061266673736 0.00922384986015364 -176.40092897303 0.0186584117269507 -148.495626007401 98.6843334954101 48.217657617525  
0.42             7466.46174863932 -90.0038971931832 0.0135615795215326 -155.758069816568 0.0253148262609142 -140.028313643131 110.870703641366 37.3415560663755 
0.43             7292.76109322118 -90.0015118820195 0.0232901761355831 -138.921251868429 0.0328368616182486 -133.598476516492 118.182255054715 24.5467395578596 
0.44             7126.9408339598  -89.9990630486824 0.0450615636422646 -125.080708494844 0.0396764034389221 -127.485318255049 117.554951446771 11.3245580122816 
0.45             6968.46288006487 -89.9966739764592 0.105156443712867 -102.248012845896 0.0444248950103588 -119.759457260492 109.668416370527 -0.460113369931241 
0.46             6816.84026074153 -89.9944939557261 0.187744018392522 -25.3187757999654 0.0466751452789776 -109.512607717352 98.1280072891042 -9.69640262757852 
0.47             6671.63131143577 -89.9926889794145 0.0974682976637718 21.3600081869045 0.0467745202189554 -97.0984050936897 86.1655198318997 -16.260615381766 
0.48             6532.43466139635 -89.9914313861299 0.0636218248762186 36.028269641636  0.0453478231272298 -83.4874661803225 75.370910923674  -20.5236352641808 
0.49             6398.88325219719 -89.9908841734935 0.0491092130608202 44.8100263867759 0.0430700364048834 -69.615645622272 66.1899521216535 -22.9331918132687 
0.5              6270.63859575211 -89.9911900450967 0.0414703066671086 51.8635400373566 0.0405178970263159 -56.0834138864167 58.5739412617167 -23.8564505943911 
0.51             6147.38516786031 -89.9924576845851 0.0370407779875091 58.2168533851231 0.0380803714439933 -43.1482563007682 52.3290228107557 -23.5614434797707 
0.52             6028.82550296127 -89.9947428341211 0.0344037928921254 64.2110567448293 0.0359633827856344 -30.8377185548864 47.2536794103611 -22.2420292496453 
0.53             5914.67690005429 -89.9980179106404 0.0329082369730871 69.9837278358485 0.0342470302221205 -19.0601552134434 43.1801938386399 -20.0496618632625 
0.54             5804.67110792399 -90.0021281487519 0.0322233066794772 75.6020454742995 0.0329437658288811 -7.67403486248732 39.9796465573157 -17.121634484143 
0.55             5698.55852185991 -90.0067467954291 0.0321744532107851 81.1075783871337 0.0320378080359544 3.47871444060187 37.5547583403227 -13.6026488061865 
0.56             5596.11706500519 -90.0113658303562 0.0326743223176518 86.5338569486448 0.0315069208661415 14.5607645004427 35.8297033463079 -9.65713952706046 
0.57             5497.16202329489 -90.0153711508961 0.0336916007561398 91.9146177072712 0.0313328022199936 25.738030286508  34.7404768392353 -5.46990351803439 
0.58             5401.54882502775 -90.0182135284744 0.0352374200210729 97.2889721427071 0.0315049709170914 37.1827998766048 34.227545195447  -1.2349251650334 
0.59             5309.16245003827 -90.0195983372449 0.0373614179328833 102.706257401064 0.0320205959038782 49.078073845632  34.231612283181  2.86342499471377 
0.6              5219.89720859368 -90.0195685668611 0.0401545370737714 108.23233419627  0.0328805849068445 61.6206808995656 34.6924381575863 6.6693457804092  
0.61             5133.63920328109 -90.0184302137925 0.0437579913328545 113.959027727959 0.0340803886050597 75.0197751612844 35.5498007113786 10.067814543005  
0.62             5050.26040526912 -90.0165924809616 0.048378896258458 120.018991462522 0.0355924637802065 89.484597959126  36.745303459624  12.987249966267  
0.63             4969.62304722878 -90.0144302841864 0.0543123831768269 126.609700706173 0.0373379218118303 105.191477384001 38.2239379334926 15.3942961981544 
0.64             4891.58763367548 -90.0122186422826 0.0619638515902286 134.032535383098 0.0391526673688634 122.2185747562   39.9348405394644 17.2845802003007 
0.65             4816.01947428712 -90.0101269947714 0.0718390855621735 142.754132859172 0.0407741753267035 140.449105915033 41.831178373268  18.6729926139945 
0.66             4742.79222257609 -90.0082419270632 0.0843787322310741 153.486122200107 0.0418963474564809 159.48405562884  43.8693742017873 19.5855840651291 
0.67             4671.7890002292  -90.0065950824846 0.0992635047948735 167.207133033406 0.0423074520547307 178.653277514225 46.0079536292444 20.0537801725028 
0.68             4602.90215420421 -90.0051859822856 0.11360182811249 -175.203887631896 0.0420173575978952 -162.818844533266 48.2062629106317 20.110784217083  
0.69             4536.0324387897  -90.0039975219384 0.120503568818201 -154.282884753983 0.0412426752047561 -145.57958335285 50.4232466742247 19.7897109497181 
0.7              4471.0880423347  -90.0030052639394 0.114698047412375 -133.12052060076 0.0402667599638341 -130.007833987207 52.6164340206052 19.1229666891438 
0.71             4407.98365295104 -90.0021829324207 0.100275142108262 -115.114447003079 0.0393126885224629 -116.221544116067 54.7412727128345 18.1424787091889 
0.72             4346.6396891006  -90.0015055806754 0.0845191751337922 -101.194876293222 0.0385019521785386 -104.162271828766 56.7509698183052 16.8804798907751 
0.73             4286.98167275857 -90.0009507816226 0.0709165191256664 -90.5733652083541 0.0378726931339461 -93.6797541808338 58.5970206141403 15.3706239951496 
0.74             4228.93969272348 -90.0004988882889 0.0600039978961549 -82.2046067034293 0.0374129407779067 -84.5878689188156 60.2306111055549 13.6492247271926 
0.75             4172.44795562293 -90.0001329909087 0.0513702705375843 -75.2805651379123 0.0370872345472689 -76.6945532172106 61.605025767203  11.7563894362712 
0.76             4117.44441223177 -89.9998387089149 0.0444941224296946 -69.2417566477484 0.0368531546950367 -69.8155623086008 62.6790393591657 9.73677542926564 
0.77             4063.8704414263  -89.999603901677 0.038954726865504 -63.7013412255307 0.0366704710821985 -63.7799155733519 63.4210069629219 7.63966892234909 
0.78             4011.67057830932 -89.9994183609477 0.0344491314536592 -58.385094661396 0.0365059288903129 -58.4317375284299 63.8130332729867 5.51812077608255 
0.79             3960.79227696022 -89.9992735193461 0.0307673969332685 -53.0970291692378 0.0363355401007392 -53.6309674742064 63.854320489394  3.42700735922779 
0.8              3911.18570088792 -89.9991621896836 0.0277652882349923 -47.7036459025357 0.0361452533788408 -49.2540148281021 63.5627318778509 1.42012054644146 
0.81             3862.80353606335 -89.9990783393562 0.0253425067606321 -42.1291969804204 0.0359303580529696 -45.1945707425818 62.9738899785078 -0.453328086405664 
0.82             3815.60082267949 -89.9990168988038 0.0234266914826031 -36.3553763562301 0.0356938598612429 -41.364295826644 62.1377269739826 -2.15218105749225 
0.83             3769.53480270019 -89.9989736007909 0.0219621140770377 -30.419628913889 0.0354441597968768 -37.6929378360874 61.1131065466212 -3.6461175397319 
0.84             3724.56478091851 -89.9989448464834 0.0209021367665258 -24.4076169378113 0.0351924825431194 -34.1275380726314 59.9616434593722 -4.91721669642743 
0.85             3680.65199772713 -89.9989275943098 0.0202047537185438 -18.438206896986 0.0349505121543929 -30.630650886513 58.7419536478139 -5.96006853776146 
0.86             3637.75951215795 -89.998919267904 0.0198305933158675 -12.6432176702442 0.0347285745434745 -27.1777826807084 57.5052773069572 -6.78053464512307 
0.87             3595.85209401333 -89.9989176799104 0.0197426567442572 -7.14714502147669 0.0345345153352335 -23.7544373893709 56.2929120606564 -7.39352292530301 
0.88             3554.89612411182 -89.9989209688944 0.0199069822747499 -2.05220942600728 0.0343732394332374 -20.353188790297 55.1354005004027 -7.82026357555976 
0.89             3514.85950182562 -89.9989275470463 0.0202935034489183 2.56856323520626 0.0342467612446663 -16.9711123977176 54.0530887595949 -8.08555642428263 
0.9              3475.71155920775 -89.9989360567829 0.0208766153957038 6.67087619693002 0.0341545745039377 -13.6077644053174 53.0575482115446 -8.21534630994175 
0.91             3437.4229811028  -89.9989453346473 0.0216352545890368 10.2340102494973 0.0340941688658565 -10.263753257543 52.1533855624327 -8.23483100768051 
0.92             3399.9657307123  -89.9989543812389 0.0225525097673625 13.2539179740864 0.0340615673673997 -6.93984721885322 51.3400831767498 -8.16716362597711 
0.93             3363.31298014946 -89.9989623360998 0.0236148727781711 15.736632610804  0.0340518100962404 -3.6365080188617 50.6136473956114 -8.03270622879526 
0.94             3327.43904557054 -89.9989684566954 0.0248112363157151 17.6930058033743 0.0340593512493636 -0.353727743009806 49.9679593687132 -7.8487315250068 
0.95             3292.31932651475 -89.9989721007889 0.02613170132135 19.1350313161528 0.0340783648461097 2.9089415008212  49.3958056748166 -7.62944888571853 
0.96             3257.93024912204 -89.9989727116139 0.0275662094561409 20.0736320485897 0.0341029698677233 6.15225198844001 48.8896151633644 -7.38623750472088 
0.97             3224.24921293122 -89.99896980539  0.0291029875907087 20.517677975018  0.0341273918996171 9.37708047481935 48.4419514221294 -7.12799056019977 
0.98             3191.25454098865 -89.9989629607753 0.0307267940214323 20.4740321881801 0.034146078939088 12.5842438654105 48.0458159404653 -6.86149987742494 
0.99             3158.92543302285 -89.9989518099437 0.0324170007831117 19.9484959971945 0.0341537866226276 15.7743338961049 47.6948129652096 -6.59183463336288 
1                3127.24192146195 -89.9989360310249 0.0341456445246553 18.9475829185233 0.0341456445254069 18.9475829187908 47.3832186219681 -6.32268711845928 
