! Touchstone file from project FYP_Sim_Actual_Separated_Ports
! Exported from HFSS 13.0.2
# GHZ Z MA R 50.000000
! Terminal data exported
! Port[1] = PD2_Incision_Port_T1
! Port[2] = Radiating_Plate_T1
0                0.00283662503046799 89.999999360716  1.96308699289171E-009 78.5612783370965 1.46511778943718E-009 71.6724144439686 1186.82100916899 -89.2555666725068 
0.01             0.00567310830058786 89.9999999999626 1.20278351045284E-009 68.4287340352082 8.74999027830789E-010 55.2474177219394 791.520661230135 -89.2425764176978 
0.02             0.0113462186466897 89.9999999933327 6.05344669908418E-010 13.137003811953  6.22210709386264E-010 -15.7346349036911 396.48767013949  -89.1935335031774 
0.03             0.0170193330867005 89.9999999936515 1.03214417748422E-009 -33.9477278503535 1.18437982046125E-009 -50.5330816292822 263.798992087875 -89.1923107424224 
0.04             0.0226924536687604 89.9999999951595 2.09030994141197E-009 -52.3627025484439 2.22225960205575E-009 -66.0235977990645 196.721834753561 -89.2006488808394 
0.05             0.028365582440992 89.9999999967224 4.32625643770699E-009 -69.4618899562144 4.18537920284352E-009 -82.2020757063897 155.978566446933 -89.2007813109949 
0.06             0.0340387214519904 89.9999999981087 8.69494296028448E-009 -102.487839431629 7.69112821207268E-009 -110.297099417957 128.442288361607 -89.1920049318818 
0.07             0.0397118727510452 89.9999999992182 1.11237677426838E-008 -147.020788477579 1.05038835095227E-008 -149.573631236654 108.465000007824 -89.1769719076149 
0.08             0.0453850383882948 89.9999999999238 1.15941754522692E-008 -173.510466857659 1.14486519265746E-008 -178.535198181412 93.211882632684  -89.1578321532045 
0.09             0.0510582204148657 90.0000000000165 1.54052364571034E-008 163.41699468793  1.46685292621006E-008 157.230248776316 81.1025275787626 -89.1353367117337 
0.1              0.0567314208830082 89.9999999992336 2.10489323361132E-008 101.6041493876   2.10031167532846E-008 101.07975588952  71.1855525277642 -89.1085650742611 
0.11             0.0624046417469863 89.9999999869634 3.16584006484177E-008 155.011460680856 2.96649373446685E-008 150.627018940815 62.849564291239  -89.0726549822522 
0.12             0.0680778851270821 89.9999999773289 4.79873079735791E-008 -178.970897445118 4.36423480935135E-008 177.322375926526 55.7088111100599 -89.0277433397346 
0.13             0.0737511530748262 89.9999999700217 6.41605007744673E-008 -161.365009585475 5.81232131679569E-008 -164.270805421717 49.478817641951  -88.9723489996484 
0.14             0.0794244476435565 89.9999999648285 7.92092977312254E-008 -146.484202731711 7.21220950288561E-008 -148.761847123427 43.9552996781453 -88.9036364976636 
0.15             0.0850977708891165 89.9999999615777 9.2968732297599E-008 -132.54779028048 8.54265067655255E-008 -134.312069890617 38.987306546505  -88.8170261758139 
0.16             0.0907711248710655 89.9999999601413 1.05447246700364E-007 -118.800400234569 9.80067859126174E-008 -120.123000762781 34.4604089717843 -88.7054665390573 
0.17             0.0964445116549542 89.9999999604404 1.16716753391282E-007 -104.821741131246 1.09897107740956E-007 -105.756253149668 30.2857931258479 -88.5581469779254 
0.18             0.102117933317031 89.9999999624966 1.2690555724692E-007 -90.3162408413867 1.21178361777877E-007 -90.9154840792093 26.3929632774456 -88.358183998528 
0.19             0.107791391955204 89.9999999666122 1.36225859140436E-007 -75.0370907713346 1.31994686097721E-007 -75.3653321160701 22.7247291629222 -88.0782660410053 
0.2              0.113464889718924 89.9999999738762 1.45022856431332E-007 -58.7602268678738 1.42589318851274E-007 -58.9012205383007 19.2337015780738 -87.671880051578 
0.21             0.119138428911986 89.9999999885787 1.53841583468571E-007 -41.2862992350265 1.53356246149872E-007 -41.3449603039158 15.8798674752486 -87.0539437046042 
0.22             0.124812012519064 90.0000000353279 1.63502070699336E-007 -22.4667525335449 1.6490256205662E-007 -22.5593839305148 12.6291401068118 -86.0523912222181 
0.23             0.130485651631247 90.0000006610652 1.75156780480673E-007 -2.25129349508194 1.78106982870115E-007 -2.47917342096132 9.45347003910089 -84.2637553242262 
0.24             0.136159291154054 90.000000453485  1.90283050705993E-007 19.2593787494998 1.94145477408832E-007 18.8503098790704 6.33632386568355 -80.4870955612062 
0.25             0.141833023752491 90.0000000413062 2.10561643484049E-007 41.7932195749209 2.14447064836236E-007 41.246257663857  3.31666943971212 -69.1093520315094 
0.26             0.147506799886873 90.0000000055047 2.37643546791554E-007 64.9572831290245 2.40563059327205E-007 64.4004359677329 1.36157364180332 3.17777617595061 
0.27             0.153180628164301 89.999999995924  2.72898754813794E-007 88.3496939160039 2.73990666985483E-007 87.9402538974143 3.66648766609103 64.3256892970059 
0.28             0.158854511447292 89.9999999913887 3.17289011441251E-007 111.665565183601 3.16051487569757E-007 111.512881734352 6.8852452585366  74.115105436641  
0.29             0.164528452026917 89.999999987561  3.71458868591666E-007 134.73627183957  3.67928510162307E-007 134.847526208685 10.3189646401698 77.3053585121123 
0.3              0.170202452060296 89.999999982985  4.36059024993312E-007 157.503774652248 4.30905130101835E-007 157.772322462545 13.9576309075159 78.5706270632016 
0.31             0.175876513660517 89.9999999770117 5.12277929482742E-007 179.970278255298 5.06784072028766E-007 -179.803934830296 17.8454290067491 78.9557450900485 
0.32             0.181550638923474 89.9999999693139 6.02559712437102E-007 -157.846065114582 5.98442888164624E-007 -157.922879182452 22.0478854501117 78.7998300436612 
0.33             0.187224829937847 89.9999999597436 7.11508585189088E-007 -135.942718869421 7.1051120221563E-007 -136.606290832953 26.6504620929406 78.2213513256411 
0.34             0.192899088789389 89.9999999482793 8.47030089169631E-007 -114.357266392866 8.50214868269247E-007 -115.880875331275 31.7627378939041 77.2422240638653 
0.35             0.198573417562967 89.9999999350197 1.02184428024944E-006 -93.1895506094435 1.02850176330772E-006 -95.7992490186363 37.5247430130882 75.8249739198734 
0.36             0.204247818343579 89.9999999201827 1.25560540895917E-006 -72.6198490444842 1.26161727352753E-006 -76.4587442448401 44.1135911979659 73.8804398664343 
0.37             0.209922293216878 89.9999999041006 1.57792175189291E-006 -52.9177904817018 1.57327868323677E-006 -58.0192375577161 51.7459613827532 71.2612859979302 
0.38             0.215596844269405 89.9999998872292 2.03239978921181E-006 -34.4396174775184 1.99732305547391E-006 -40.7208706948648 60.6636867903156 67.7463823208433 
0.39             0.22127147358867 89.9999998701324 2.68076905549619E-006 -17.6166818869273 2.57959837521691E-006 -24.8997193747636 71.0688515442318 63.0216645261028 
0.4              0.226946183263113 89.9999998534907 3.60229158928465E-006 -2.93075156019751 3.37449164206651E-006 -10.9863706430309 82.9318659248209 56.6760594061344 
0.41             0.232620975382   89.9999998380673 4.87390149725671E-006 9.16802533369453 4.42400912816019E-006 0.565120458386208 95.5516009512896 48.2684021401145 
0.42             0.238295852035275 89.9999998247043 6.50580086709566E-006 18.5093352397004 5.70217524117353E-006 9.52765145146677 106.895475170402 37.5777100699244 
0.43             0.243970815313372 89.999999814274  8.34260107431874E-006 25.6645668760294 7.04459416356245E-006 16.3742368227428 113.54885137283  25.0815311722921 
0.44             0.249645867307024 89.9999998076574 1.00710324908729E-005 32.1938440098066 8.18576547823008E-006 22.5423441769682 112.78247243879  12.2306592339685 
0.45             0.255321010107079 89.9999998056857 1.14398801274084E-005 39.9628500697029 8.95896097241318E-006 29.7751925555949 105.296416097113 0.804060189062403 
0.46             0.260996245804354 89.9999998090785 1.24135479114018E-005 50.0497414190231 9.3992152314331E-006 39.062879172532  94.4101756611128 -8.13730588571483 
0.47             0.26667157648958 89.9999998183871 1.30696601899413E-005 62.4858602900469 9.62986801868048E-006 50.4224187856596 83.1068925332495 -14.4647768195176 
0.48             0.27234700425346 89.9999998339397 1.34743434640394E-005 76.6936683548125 9.75003350547862E-006 63.3606227383139 72.881516365385  -18.5261589744566 
0.49             0.278022531186833 89.9999998558007 1.36659698706466E-005 91.9170286454566 9.81518285228906E-006 77.2891354912767 64.1718536060755 -20.7517268733552 
0.5              0.283698159380834 89.9999998837684 1.36839433244157E-005 107.462794423989 9.85534293750339E-006 91.7073517123057 56.9471514802668 -21.5006993276312 
0.51             0.28937389092704 89.9999999173599 1.35830888045703E-005 122.817308836579 9.89103513456396E-006 106.251258893215 51.0330937748884 -21.040246609358 
0.52             0.295049727917655 89.9999999557985 1.34260862537158E-005 137.677707091851 9.94029246120274E-006 120.689650000495 46.2432775466188 -19.5677529480104 
0.53             0.300725672445818 89.9999999979999 1.32698633261305E-005 151.922834749267 1.00203487647517E-005 134.901872558921 42.4205788689964 -17.2405304382558 
0.54             0.306401726606011 90.0000000425873 1.31580191946716E-005 165.557846211554 1.01476195543133E-005 148.85082847106  39.4434479246835 -14.2023556172372 
0.55             0.312077892494489 90.0000000879213 1.3120611976978E-005 178.661448477458 1.03377362050522E-005 162.557929844046 37.2201638217184 -10.6034957108946 
0.56             0.317754172209706 90.0000001321556 1.31777155149567E-005 -168.6515785818  1.06060542285611E-005 176.083119397515 35.6798532203691 -6.61187093944006 
0.57             0.323430567852679 90.0000001732973 1.33435678356736E-005 -156.252377656858 1.09684787937466E-005 -170.489402540209 34.7637023255204 -2.41338624573389 
0.58             0.329107081527301 90.0000002092728 1.36298456905489E-005 -144.008965883982 1.14423076416911E-005 -157.060524210531 34.4179094436349 1.79837429806156 
0.59             0.334783715340599 90.0000002379992 1.4047691118316E-005 -131.790680110598 1.20467580753299E-005 -143.521989880247 34.5890602668561 5.83927515839676 
0.6              0.340460471402937 90.0000002574426 1.46084574066219E-005 -119.469438164632 1.28027355293323E-005 -129.760089588653 35.2218643978159 9.55212808120622 
0.61             0.346137351828181 90.0000002656765 1.53230560277891E-005 -106.920126514275 1.37311388959519E-005 -115.658959166153 36.2585642440585 12.8187231381224 
0.62             0.351814358733834 90.0000002609335 1.61995321779993E-005 -94.0220456414813 1.4848602926685E-005 -101.105762316336 37.6391256517466 15.564024905383  
0.63             0.357491494241183 90.0000002416417 1.72382859595087E-005 -80.6636154954535 1.61592968959959E-005 -86.001178282077 39.3016648839014 17.7538533871772 
0.64             0.363168760475475 90.0000002064708 1.84245397699983E-005 -66.7532194523041 1.76420252874502E-005 -70.279865474174 41.1832373977842 19.3890249309163 
0.65             0.36884615956609 90.0000001543769 1.97188885492509E-005 -52.2393026630559 1.9235000595911E-005 -53.9447518253634 43.2216959265357 20.4982993439966 
0.66             0.374523693646629 90.0000000846605 2.10497713764668E-005 -37.1406459539148 2.08274567383033E-005 -37.1116059462179 45.3593635134167 21.1307283796294 
0.67             0.380201364854701 89.9999999970213 2.2315726176331E-005 -21.5804565835723 2.2273684819227E-005 -20.0435394638935 47.5483699535279 21.3465554120677 
0.68             0.385879175331476 89.9999998915442 2.34055921603529E-005 -5.80627855904581 2.34377602696458E-005 -3.14010957341418 49.7556639767723 21.2058232300262 
0.69             0.391557127221506 89.9999997685941 2.42344511527892E-005 9.82778179595163 2.42488377990157E-005 13.1390719646771 51.9639057203792 20.7558167246638 
0.7              0.397235222673327 89.9999996287114 2.47754762134036E-005 24.924046003954  2.47255592281487E-005 28.3852970071768 54.1646571113843 20.0215031467539 
0.71             0.402913463840506 89.9999994726084 2.50640242285971E-005 39.1246191229736 2.4951319987893E-005 42.3226129966046 56.3439779764309 19.0045622924419 
0.72             0.408591852882303 89.9999993012358 2.5171852865246E-005 52.1748032493992 2.50257737814333E-005 54.826759846838  58.4662206982559 17.6937816583644 
0.73             0.414270391963796 89.9999991158435 2.51727524327087E-005 63.9454260489618 2.50278830597207E-005 65.8986293562945 60.4651109663601 16.0832967204175 
0.74             0.419949083255853 89.9999989179625 2.51206697412055E-005 74.4214681507988 2.5003452576921E-005 75.6255408401289 62.2486918148913 14.190104292943  
0.75             0.425627928935289 89.9999987093592 2.50454507620931E-005 83.6747666481392 2.4970458225382E-005 84.148276013237  63.717568518216  12.0626626867752 
0.76             0.431306931185212 89.9999984919722 2.49596340950313E-005 91.8332930718409 2.4931092875941E-005 91.6358312646378 64.7888936731449 9.77760150297112 
0.77             0.436986092195489 89.9999982678659 2.48679319155369E-005 99.0526838182716 2.48829005026274E-005 98.265105095978  65.4160113675971 7.42742759703116 
0.78             0.442665414163236 89.999998039175  2.47742915108415E-005 105.492768901508 2.48256926813388E-005 104.204484288048 65.5966665569315 5.10516216554538 
0.79             0.448344899293313 89.9999978080592 2.46850962867662E-005 111.300860544785 2.47640039434359E-005 109.602217063016 65.3687308186036 2.89140367147544 
0.8              0.454024549798789 89.9999975766543 2.46093346077144E-005 116.602370710089 2.47064619932235E-005 114.580391087973 64.7975991342628 0.846771460037817 
0.81             0.459704367901393 89.9999973470122 2.45572944018228E-005 121.497827933429 2.46638256976538E-005 119.234068407531 63.9612473340828 -0.990069076212987 
0.82             0.465384355831919 89.9999971210451 2.45390622519517E-005 126.064337217823 2.46470129679037E-005 123.634037093163 62.9376104361025 -2.60032619073484 
0.83             0.471064515830599 89.9999969004665 2.45634813910284E-005 130.359356215873 2.46657556345056E-005 127.831349855331 61.7963462845963 -3.98093242641332 
0.84             0.476744850147409 89.9999966867243 2.46377044984961E-005 134.425126252709 2.47279781152333E-005 131.862185413284 60.594903763928  -5.13993539773429 
0.85             0.482425361042327 89.9999964809344 2.47672099188293E-005 138.292765791284 2.48397266964099E-005 135.752167386727 59.3777567265691 -6.09238536269125 
0.86             0.488106050785505 89.9999962838193 2.49560843557502E-005 141.985600159568 2.50054172847042E-005 139.519795469871 58.1774967529246 -6.85711012315921 
0.87             0.493786921657368 89.999996095637  2.52074104620877E-005 145.521659977119 2.52282144208485E-005 143.17897246362  57.0167530998415 -7.45441008007725 
0.88             0.499467975948617 89.9999959161224 2.55236592110765E-005 148.915455283842 2.55104246345663E-005 146.740766224917 55.9102838028306 -7.90453589506213 
0.89             0.505149215960143 89.9999957444248 2.5907039121258E-005 152.179187778603 2.58538459896318E-005 150.214588802389 54.8668931773427 -8.22676185033116 
0.9              0.510830644002838 89.9999955790525 2.63597882970292E-005 155.323557989473 2.62600537846936E-005 153.608961657165 53.8910370113454 -8.4388798839418 
0.91             0.516512262397307 89.9999954178248 2.6884413429947E-005 158.358295276913 2.67306228879295E-005 156.932001984427 52.9840927231535 -8.5569738169063 
0.92             0.522194073473486 89.9999952578308 2.74838877924382E-005 161.292505980274 2.72672960508623E-005 160.191729395514 52.145326864354  -8.59537047256264 
0.93             0.527876079570171 89.9999950953945 2.81618224996446E-005 164.134906947171 2.7872109855161E-005 163.396262116364 51.372611991842  -8.56669602830534 
0.94             0.533558283034452 89.9999949260504 2.89226250124225E-005 166.893990315393 2.85474890611772E-005 166.553949145555 50.6629464516912 -8.48199001706406 
0.95             0.539240686221086 89.9999947445311 2.97716577850265E-005 169.578150323646 2.92963179520114E-005 169.673468768746 50.0128242912898 -8.35084654832615 
0.96             0.544923291491805 89.9999945447624 3.07154090447972E-005 172.19579285845  3.01219947293121E-005 172.763912976389 49.4184938062291 -8.18156401057998 
0.97             0.550606101214571 89.9999943198717 3.17616873676826E-005 174.755442112347 3.10284724679194E-005 175.834870215621 48.8761347137478 -7.98129223116743 
0.98             0.556289117762817 89.9999940622031 3.29198521929913E-005 177.265855094022 3.20202876102715E-005 178.896514322548 48.3819766385795 -7.75617102332585 
0.99             0.561972343514661 89.9999937633476 3.42010938339032E-005 179.736153060439 3.31025743402228E-005 -178.040295487311 47.9323757379857 -7.51145715071325 
1                0.567655780852128 89.9999934141779 3.56187790210319E-005 -177.824021218881 3.42810601778927E-005 -174.963900728479 47.5238617780631 -7.25163862578419 
