! Touchstone file from project FYP_Sim_Actual_Separated_Ports
! Exported from HFSS 13.0.2
# GHZ S MA R 50.000000
! Terminal data exported
! Port[1] = PD1_Void_Port_T1
! Port[2] = Radiating_Plate_T1
0                0.999999998754902 0                4.65799402376183E-010 0                5.79711325755987E-011 180              0.999144136974792 0                
0.01             0.999999999645253 -0.0151184372771669 6.10293917205909E-010 -35.6578229238725 6.72604509086884E-011 126.305490599819 0.998347895164835 -7.2093200987102 
0.02             1.00000000281572 -0.0302375336326247 1.03205893682513E-009 -51.4272421221108 1.09917380305237E-010 79.1477541954243 0.996533317057595 -14.3357472523986 
0.03             1.00000001283951 -0.0453590792037272 1.84656773794455E-009 -41.6273780590253 2.10691649166368E-010 44.3062428770637 0.994886797450592 -21.4074714333739 
0.04             1.00000013830743 -0.0605016512994119 1.70773935427252E-009 -7.09739101449442 4.04735163610501E-010 15.3238733172952 0.993394991664116 -28.4467961021682 
0.05             1.00000001577917 -0.0755646811301774 1.00511386728382E-009 -16.3131878121031 7.22150668998256E-010 -14.8574994125368 0.991954140946285 -35.4563193325886 
0.06             0.999999998140279 -0.0906956042895281 9.53657190263269E-010 -50.2526714904734 1.09920176520658E-009 -47.3137901579089 0.990535505178804 -42.4335730300367 
0.07             0.999999999013835 -0.10581752057012 1.28564721633613E-009 -78.4094229696495 1.42356928393443E-009 -76.5811611140844 0.989155469598743 -49.3766315956238 
0.08             1.00000000023679 -0.12093833180094 1.85783130184551E-009 -101.695324551929 1.76190830892397E-009 -100.73821012062 0.987843366160633 -56.2855932162546 
0.09             1.00000000069678 -0.136059207749321 2.57903611947878E-009 -127.67293920096 2.28323674266182E-009 -124.885577479832 0.986620676990883 -63.1628634540268 
0.1              0.999999999963525 -0.151180547739149 3.04390986244562E-009 -158.447681820045 2.9951204217858E-009 -159.144479965785 0.985486867964896 -70.0130511277016 
0.11             1.00000029989798 -0.166265317862695 1.08572165600902E-008 169.63384491764  7.74624280039488E-009 -176.447512547399 0.984333686083827 -76.8427975398689 
0.12             1.00000053646013 -0.181354023197491 1.91447999170339E-008 164.02357267565  1.3004237355668E-008 178.82177227199  0.983233302757698 -83.6438395216714 
0.13             1.00000072290963 -0.196446946058747 2.73037033522646E-008 161.533605931093 1.85961869742604E-008 176.403113513322 0.982183899704956 -90.4209773826061 
0.14             1.00000086846969 -0.21154439280504 3.51279200633114E-008 160.22153923471  2.44423128499975E-008 174.843813829811 0.981170539202027 -97.1801100976018 
0.15             1.00000097905974 -0.226646790650459 4.24254491210399E-008 159.647073383221 3.04559965866909E-008 173.742848005372 0.980164532397988 -103.928130970322 
0.16             1.0000010574206  -0.241754811048974 4.89911010690021E-008 159.700580165844 3.65275239848062E-008 172.966160568613 0.979123113746465 -110.672827649108 
0.17             1.00000110228075 -0.256869575336727 5.45953429936952E-008 160.403096232946 4.25120724616917E-008 172.484097545147 0.977989343376198 -117.422792910372 
0.18             1.00000110542793 -0.271993057288499 5.89755762762576E-008 161.869257922844 4.82143653337139E-008 172.330762064395 0.976692153223054 -124.187351190231 
0.19             1.00000104290723 -0.287128970051053 6.18310314951918E-008 164.327684286156 5.33665326133465E-008 172.604527944235 0.975146449859972 -130.976504330329 
0.2              1.00000084578946 -0.30228496470685 6.28315605597904E-008 168.195762535066 5.75956188442187E-008 173.499482262709 0.973253186350102 -137.800898385053 
0.21             1.00000027930566 -0.317478771528585 6.16760933376517E-008 174.25627547008  6.03784076180394E-008 175.389362993301 0.97089931761069 -144.671811548956 
0.22             0.999998236780133 -0.332754101447139 5.83260971114266E-008 -175.940090248531 6.09955721014172E-008 179.043891236107 0.967957560799418 -151.601161213861 
0.23             0.999987466834355 -0.348008378175907 5.38581899419126E-008 -159.313341934578 5.85924559409844E-008 -173.748864432698 0.964285897968476 -158.601525755599 
0.24             0.999987914996813 -0.361981156767092 5.30844846021481E-008 -131.698728231622 5.3087242505798E-008 -158.208893132674 0.959726788366755 -165.686173796581 
0.25             0.99999721217273 -0.377197864690482 6.74231340786331E-008 -96.9686437549852 5.15858779971153E-008 -123.328582177163 0.954106109789518 -172.869090353305 
0.26             0.999999371755741 -0.392446982459987 1.08052067336342E-007 -68.3491946133473 8.5712287490558E-008 -76.8211989099227 0.947231931195762 179.835014490985 
0.27             1.00000010736971 -0.407640191454267 1.8289791836589E-007 -46.8285932219499 2.02320731092892E-007 -45.7068077157488 0.938893341802048 172.410732736153 
0.28             1.00000042847614 -0.422806725580525 3.04266291463597E-007 -26.5240513051505 4.94640006462131E-007 -13.9266662964051 0.928859732624763 164.842043511601 
0.29             1.00000058510264 -0.437960044539721 4.76790772280138E-007 -2.09404182479248 8.32633868277476E-007 38.6813851768385 0.916881146519119 157.112480661908 
0.3              1.00000066188629 -0.453106328058024 6.36742973273548E-007 28.3998104313932 7.23507159740371E-007 74.9413690864161 0.902690570163877 149.205407436788 
0.31             1.00000069402538 -0.468248693777073 6.69735757420989E-007 58.4637255992774 6.07295552857256E-007 87.7156913374012 0.886009299395297 141.104417897959 
0.32             1.00000069840644 -0.483388845227353 6.06451617260814E-007 81.5112750573919 5.48329303254307E-007 91.375290218117  0.866556692328872 132.793871869627 
0.33             1.00000068401838 -0.498527770015318 5.25417470244096E-007 98.7895387248592 5.19661050351721E-007 90.7186382112576 0.844065607366348 124.259546355341 
0.34             1.00000065602885 -0.513666064629392 4.51661986286601E-007 113.777393786052 5.07945606551683E-007 87.2147592071791 0.818304433690523 115.489348818305 
0.35             1.00000061757701 -0.528804098185293 3.88680476895687E-007 129.612757907513 5.08310809577371E-007 81.2646135678277 0.789105680494379 106.473986896838 
0.36             1.00000057063513 -0.54394210056336 3.41660232516893E-007 149.409339047301 5.21042443110706E-007 72.8459311001792 0.756399503124907 97.2074309391259 
0.37             1.00000051645099 -0.559080212354017 3.28758145799592E-007 175.363974898554 5.51433104919236E-007 61.8132134404709 0.720248444327926 87.6869541660518 
0.38             1.00000045578594 -0.574218514208975 3.82422474851767E-007 -155.78793377014 6.11500032374204E-007 48.1915845448196 0.680877560684131 77.9125121266687 
0.39             1.00000038904555 -0.58935704435434 5.29738496877191E-007 -131.483440595799 7.2283895980073E-007 32.4649319536674 0.638692867561362 67.8852527349687 
0.4              1.00000031635039 -0.604495808776372 7.90028367585776E-007 -113.566338406745 9.20420400885478E-007 15.5351455666375 0.594281656698932 57.6050466661825 
0.41             1.00000023757134 -0.61963478638071 1.20187814526564E-006 -99.5450875723966 1.25951791677652E-006 -1.89208441305421 0.548391258640083 47.0670918835202 
0.42             1.00000015234396 -0.634773930136093 1.84698020583789E-006 -86.6181148419784 1.82998360935104E-006 -20.0750622125403 0.501887761456198 36.2578514315374 
0.43             1.00000006007335 -0.649913164306038 2.87151401802081E-006 -72.0134889372126 2.76816512678459E-006 -40.6652559262879 0.45570145010624 25.1508037376119 
0.44             0.999999959944391 -0.665052377044409 4.43791276662929E-006 -52.2262309552947 4.15975634707723E-006 -66.5395148527428 0.410769183074636 13.7027269874006 
0.45             0.999999850964927 -0.680191406684386 6.2206951061665E-006 -24.3205016830106 5.55022910806092E-006 -98.612391830788 0.367984026289414 1.8515816710625  
0.46             0.999999732101819 -0.695330018893142 6.89807749251302E-006 6.23127493039241 6.0175552815514E-006 -129.807650091447 0.328159002096468 -10.4823539459147 
0.47             0.999999602642688 -0.710467870772891 6.4064640937183E-006 29.0008663311139 5.77856383329923E-006 -153.052647777817 0.292005811856117 -23.3894877808049 
0.48             0.999999463075926 -0.725604458655517 5.74986468324315E-006 43.2755263090604 5.46412577967354E-006 -169.175934299414 0.260122456848662 -36.9543889844647 
0.49             0.999999317102629 -0.740739055332469 5.26698741354708E-006 52.3600688132775 5.27603722834524E-006 179.026320136102 0.232977723802985 -51.2262241813596 
0.5              0.999999175906837 -0.755870680817736 4.96032878798348E-006 58.512817129527  5.22711514965931E-006 169.678298568982 0.210878721905567 -66.1770959458286 
0.51             0.999999065982005 -0.770998270283433 4.78639547290548E-006 62.9296220831096 5.2993176999032E-006 161.703700573727 0.193915672461666 -81.6611134238802 
0.52             0.999999038624433 -0.786121452651829 4.71131116443061E-006 66.2496425029109 5.47892646273794E-006 154.453802446961 0.181900040325349 -97.4019742271928 
0.53             0.999999165164325 -0.801242393811126 4.71393490566205E-006 68.8351116496822 5.7606799356253E-006 147.489882217471 0.174337365212625 -113.03554761351 
0.54             0.9999994842491  -0.816367424826766 4.78244564237924E-006 70.9043556284651 6.14638253785366E-006 140.467974433264 0.170474849220609 -128.199987139284 
0.55             0.999999921763098 -0.831503913500663 4.91160012267088E-006 72.596308954519  6.64241873060546E-006 133.07289857998  0.169420545738471 -142.624657619797 
0.56             1.00000032204287 -0.84665304336247 5.10123435436249E-006 74.0034918654418 7.25552567733132E-006 124.976159786633 0.170282960265004 -156.17043951922 
0.57             1.00000058638502 -0.861809374881649 5.35576582688749E-006 75.189807392218  7.98392081690846E-006 115.81176404908  0.172275946414973 -168.816067203253 
0.58             1.00000071540771 -0.876967108426248 5.68455428128213E-006 76.2005967778692 8.79890285472479E-006 105.184193963571 0.174768129661409 179.382310271126 
0.59             1.00000075171212 -0.89212328388285 6.10321532583363E-006 77.0684819092319 9.61381412728881E-006 92.7513452783536 0.177287961727601 168.331233556747 
0.6              1.00000073500223 -0.907277118713288 6.63631496586199E-006 77.8167071472289 1.02562008365852E-005 78.4396231024526 0.179505334382052 157.927768882614 
0.61             1.00000069116963 -0.92242876489706 7.32247227362081E-006 78.4607473721067 1.05026191654164E-005 62.7439515475751 0.181205854576034 148.074711508832 
0.62             1.00000063496734 -0.937578623771458 8.22421109608181E-006 79.0082948824903 1.02224358624557E-005 46.7837778116642 0.182266100960826 138.686950438528 
0.63             1.00000057431204 -0.952727088974483 9.44820734920928E-006 79.4569283492724 9.50032913258055E-006 31.8075811680762 0.182632713687258 129.692773385995 
0.64             1.00000051330562 -0.967874478577475 1.11910664667322E-005 79.786951402911  8.55942216375955E-006 18.5614886755242 0.182305470839294 121.032696822411 
0.65             1.00000045399529 -0.983021032438913 1.38577754547873E-005 79.9410848680992 7.59726063948055E-006 7.15674933009445 0.181323575378987 112.657314313955 
0.66             1.00000039733548 -0.998166926647066 1.84352026903669E-005 79.7583566419287 6.71947427214819E-006 -2.66349491672477 0.179754295519752 104.524941807481 
0.67             1.00000034370291 -1.01331228922758 2.81158933673598E-005 78.6827847815972 5.96054840561391E-006 -11.2575396037413 0.177683321419963 96.5994339657258 
0.68             1.00000029317111 -1.02845721295913 6.20139657537159E-005 73.2623965972247 5.31938787149454E-006 -18.9544720296203 0.175206456242947 88.8483344390907 
0.69             1.00000024565679 -1.04360176487464 0.00017367789548414 -61.9935799750139 4.78189424867138E-006 -26.016760595323 0.17242244538305 81.2414191021526 
0.7              1.00000020099711 -1.05874599300134 3.70531318719851E-005 -87.2916274211233 4.33138331647945E-006 -32.64075221377  0.169426842994026 73.7496446854543 
0.71             1.00000015898932 -1.0738899309896 1.97710960538287E-005 -89.3674865298074 3.95241829042369E-006 -38.9667395794549 0.166306839473981 66.3444999616895 
0.72             1.00000011940909 -1.08903360113402 1.30632213627917E-005 -89.3259103049611 3.6317175329912E-006 -45.0882083587349 0.163136963547201 58.9977597655653 
0.73             1.00000008201554 -1.10417701609042 9.44575421003673E-006 -88.4137109302267 3.35787586303138E-006 -51.0573571828744 0.159975567346281 51.6816561264587 
0.74             1.00000004654678 -1.1193201793692 7.13257333002613E-006 -86.7880841140766 3.12058433189091E-006 -56.8862184921716 0.156862037166644 44.3694987636759 
0.75             1.00000001270571 -1.13446308438697 5.47792241608337E-006 -84.2800176511319 2.90951772884226E-006 -62.5424970470779 0.153814771490909 37.0367895554063 
0.76             0.99999998013247 -1.14960571133885 4.18923603306364E-006 -80.3924999598678 2.71275685443677E-006 -67.9368806387478 0.150830140119141 29.6628678800367 
0.77             0.999999948353745 -1.16474802002235 3.11586262133789E-006 -73.9393416543216 2.51429262905688E-006 -72.891319897516 0.147882862354557 22.2330763144769 
0.78             0.999999916685981 -1.17988993385278 2.18991472523424E-006 -61.7422443049721 2.28956222355817E-006 -77.0533196905793 0.144928445575146 14.7413285441885 
0.79             0.999999884039548 -1.19503130174592 1.48072963349248E-006 -34.4124628230541 1.99663755555301E-006 -79.6163197931056 0.141908367270571 7.19278459763461 
0.8              0.999999848497584 -1.2101717943361 1.45580181865945E-006 15.6268601808191 1.55879747323516E-006 -78.0388332929313 0.138758373223427 -0.393882802903054 
0.81             0.999999806441218 -1.22531055555664 2.44726978905452E-006 51.3877769111576 8.74897380569654E-007 -56.2434756851459 0.135419460093266 -7.98533281416624 
0.82             0.999999752896937 -1.24044455006555 4.21816154862148E-006 70.0927901854764 1.400483587564E-006 45.704431477535  0.13184990256771 -15.5342315596885 
0.83             0.999999807558233 -1.25555389161341 6.93022556492223E-006 84.8554646562121 6.11644371079055E-006 78.4610919916997 0.128035551502271 -22.9821994516436 
0.84             1.00000098030924 -1.27077239967955 1.10059549339611E-005 102.65737012372  1.83508893101712E-005 131.804638789937 0.12399532969491 -30.2648879441883 
0.85             1.00000015083856 -1.28590788133963 1.5900001416864E-005 128.524470549197 1.63840902356984E-005 -176.744373176281 0.119779931850434 -37.3183409890403 
0.86             0.999999999661866 -1.30104329492213 1.78951041037957E-005 159.174371397286 1.33523256624851E-005 -164.823278883743 0.115463943369478 -44.0853118953926 
0.87             0.999999936604032 -1.31618169484049 1.61032472767539E-005 -177.744718719933 1.24436937994323E-005 -163.263943238542 0.111133838198972 -50.5202092677646 
0.88             0.999999900254009 -1.33132120036792 1.37717269829559E-005 -164.453301660496 1.25026763061791E-005 -165.1605501693  0.106875404739571 -56.591837689641 
0.89             0.999999875809005 -1.34646116478556 1.20441640628895E-005 -157.206577496252 1.31553045241748E-005 -168.785333364313 0.102763667186751 -62.2838104379712 
0.9              0.999999858000104 -1.36160131771313 1.08978294878696E-005 -153.396615179744 1.43017635734624E-005 -173.649735918372 0.0988568719914216 -67.5931047755692 
0.91             0.999999844486504 -1.37674152734483 1.01855363404463E-005 -151.72749671978 1.59530114359975E-005 -179.733537898264 0.0951945366430169 -72.5275113573298 
0.92             0.999999834065046 -1.3918817219192 9.81285180498455E-006 -151.586039108125 1.81708013275762E-005 172.698024850924 0.091798560063768 -77.102706749755 
0.93             0.999999826048893 -1.40702185900717 9.74501876101435E-006 -152.71698284582 2.10050027648095E-005 163.129236692623 0.08867609496781 -81.339480110065 
0.94             0.999999820013159 -1.422161911864  1.00054528402998E-005 -155.101477955103 2.43412056438404E-005 150.851212540311 0.0858230625289638 -85.2614075736358 
0.95             0.999999815677543 -1.43730186274219 1.06953987024928E-005 -158.96262938441 2.75807939109296E-005 135.300733390885 0.0832275589202202 -88.8930741544441 
0.96             0.999999812847044 -1.452441699354  1.20615214304689E-005 -164.933916873302 2.94382642966265E-005 116.974989671358 0.0808727608478319 -92.2588197605073 
0.97             0.999999811379777 -1.46758141288116 1.46857369667333E-005 -174.668644188952 2.88282886618257E-005 98.1622120416893 0.078739197080277 -95.3819255535169 
0.98             0.999999811168458 -1.48272099679664 1.98704542489825E-005 166.892222811108 2.62231344086957E-005 81.5932674098561 0.0768064064352092 -98.284139395083 
0.99             0.99999981212924 -1.49786044613691 2.66313227838171E-005 126.074211670749 2.29717568319889E-005 68.4179194728075 0.0750540745073194 -100.985445387853 
1                0.999999814194675 -1.51299975703587 1.98379903818777E-005 73.4414756587288 1.99516119347248E-005 58.3136756217976 0.073462762036527 -103.503998913408 
